*SPEF "IEEE 1481-1998"
*DESIGN "viterbi_decoder"
*DATE "Sun May 17 20:43:17 2026"
*VENDOR "Cadence Design Systems, Inc."
*PROGRAM "Innovus"
*VERSION "23.37-s090_1"
*DESIGN_FLOW "COUPLING C" "PIN_CAP NONE" "NAME_SCOPE LOCAL"
*DIVIDER /
*DELIMITER :
*BUS_DELIMITER []
*T_UNIT 1 NS
*C_UNIT 1 PF
*R_UNIT 1 OHM
*L_UNIT 1 HENRY

// MMMC spef file for corner 'rccorners'

*NAME_MAP

*1 clk
*2 rst_n
*3 en
*4 i_data[15]
*5 i_data[14]
*6 i_data[13]
*7 i_data[12]
*8 i_data[11]
*9 i_data[10]
*10 i_data[9]
*11 i_data[8]
*12 i_data[7]
*13 i_data[6]
*14 i_data[5]
*15 i_data[4]
*16 i_data[3]
*17 i_data[2]
*18 i_data[1]
*19 i_data[0]
*20 o_data[7]
*21 o_data[6]
*22 o_data[5]
*23 o_data[4]
*24 o_data[3]
*25 o_data[2]
*26 o_done
*27 pm00[1]
*28 pm00[0]
*29 pm10[1]
*30 pm10[0]
*31 pm11[1]
*32 pm11[0]
*33 pm01[1]
*34 pm01[0]
*35 dec_s5[3]
*36 dec_s5[2]
*37 dec_s5[1]
*38 dec_s5[0]
*39 dec_s3[3]
*40 dec_s3[2]
*41 dec_s3[1]
*42 dec_s3[0]
*43 dec_s2[3]
*44 dec_s2[2]
*45 dec_s2[1]
*46 dec_s2[0]
*47 dec_s4[3]
*48 dec_s4[2]
*49 dec_s4[1]
*50 dec_s4[0]
*51 dec_s6[1]
*52 dec_s6[0]
*53 rx_reg[15]
*54 rx_reg[14]
*55 rx_reg[13]
*56 rx_reg[12]
*57 state[2]
*58 state[1]
*59 state[0]
*60 UNCONNECTED
*61 UNCONNECTED0
*62 UNCONNECTED1
*63 UNCONNECTED2
*64 UNCONNECTED3
*65 UNCONNECTED4
*66 UNCONNECTED5
*67 UNCONNECTED6
*68 UNCONNECTED7
*69 UNCONNECTED8
*70 UNCONNECTED9
*71 UNCONNECTED10
*72 UNCONNECTED11
*73 UNCONNECTED12
*74 UNCONNECTED13
*75 UNCONNECTED14
*76 UNCONNECTED15
*77 UNCONNECTED16
*78 UNCONNECTED17
*79 UNCONNECTED18
*80 UNCONNECTED19
*81 UNCONNECTED20
*82 UNCONNECTED21
*83 UNCONNECTED22
*84 UNCONNECTED23
*85 UNCONNECTED24
*86 UNCONNECTED25
*87 UNCONNECTED26
*88 UNCONNECTED27
*89 UNCONNECTED28
*90 UNCONNECTED29
*91 UNCONNECTED30
*92 UNCONNECTED31
*93 UNCONNECTED32
*94 UNCONNECTED33
*95 UNCONNECTED34
*96 UNCONNECTED35
*97 UNCONNECTED36
*98 UNCONNECTED37
*99 UNCONNECTED38
*100 UNCONNECTED39
*101 dec_s7
*102 n_0
*103 n_1
*104 n_2
*105 n_3
*106 n_4
*107 n_5
*108 n_6
*109 n_7
*110 n_8
*111 n_9
*112 n_10
*113 n_11
*114 n_12
*115 n_13
*116 n_14
*117 n_15
*118 n_16
*119 n_17
*120 n_18
*121 n_19
*122 n_20
*123 n_21
*124 n_22
*125 n_23
*126 n_24
*127 n_25
*128 n_26
*129 n_28
*130 n_29
*131 n_30
*132 n_31
*133 n_32
*134 n_33
*135 n_34
*136 n_35
*137 n_36
*138 n_37
*139 n_38
*140 n_39
*141 n_40
*142 n_41
*143 n_42
*144 n_43
*145 n_44
*146 n_45
*147 n_46
*148 n_47
*149 n_48
*150 n_49
*151 n_50
*152 n_51
*153 n_52
*154 n_53
*155 n_54
*156 n_55
*157 n_56
*158 n_57
*159 n_58
*160 n_59
*161 n_60
*162 n_61
*163 n_62
*164 n_63
*165 n_64
*166 n_65
*167 n_66
*168 n_67
*169 n_68
*170 n_69
*171 n_70
*172 n_71
*173 n_72
*174 n_73
*175 n_74
*176 n_75
*177 n_76
*178 n_77
*179 n_78
*180 n_79
*181 n_80
*182 n_81
*183 n_82
*184 n_83
*185 n_84
*186 n_85
*187 n_87
*188 n_88
*189 n_89
*190 n_90
*191 n_91
*192 n_92
*193 n_93
*194 n_94
*195 n_95
*196 n_96
*197 n_97
*198 n_98
*199 n_99
*200 n_100
*201 n_101
*202 n_102
*203 n_103
*204 n_104
*205 n_105
*206 n_106
*207 n_107
*208 n_108
*209 n_109
*210 n_110
*211 n_111
*212 n_112
*213 n_113
*214 n_114
*215 n_115
*216 n_116
*217 n_117
*218 n_118
*219 n_119
*220 n_120
*221 n_121
*222 n_122
*223 n_123
*224 n_124
*225 n_125
*226 n_126
*227 n_127
*228 n_128
*229 n_129
*230 n_130
*231 n_131
*232 n_132
*233 n_133
*234 n_134
*235 n_135
*236 n_136
*237 n_137
*238 n_138
*239 n_139
*240 n_140
*241 n_141
*242 n_142
*243 n_143
*244 n_144
*245 n_145
*246 n_146
*247 n_147
*248 n_148
*249 n_149
*250 n_150
*251 n_151
*252 n_152
*253 n_153
*254 n_154
*255 n_155
*256 n_156
*257 n_157
*258 n_158
*259 n_159
*260 n_160
*261 n_161
*262 n_162
*263 n_163
*264 n_164
*265 n_165
*266 n_166
*267 n_167
*268 n_168
*269 n_169
*270 n_170
*271 n_171
*272 n_172
*273 n_173
*274 n_174
*275 n_175
*276 n_176
*277 n_177
*278 n_178
*279 n_179
*280 n_180
*281 n_181
*282 n_182
*283 n_183
*284 n_184
*285 n_185
*286 n_186
*287 n_187
*288 n_188
*289 n_189
*290 n_190
*291 n_191
*292 n_192
*293 n_193
*294 n_194
*295 n_195
*296 n_196
*297 n_197
*298 n_198
*299 n_199
*300 n_200
*301 n_201
*302 n_202
*303 n_203
*304 n_204
*305 n_205
*306 n_206
*307 n_207
*308 n_208
*309 n_209
*310 n_210
*311 n_211
*312 n_212
*313 n_213
*314 n_214
*315 n_215
*316 n_216
*317 n_217
*318 n_218
*319 n_219
*320 n_220
*321 n_221
*322 n_222
*323 n_223
*324 n_224
*325 n_225
*326 n_226
*327 n_227
*328 n_228
*329 n_229
*330 n_230
*331 n_231
*332 n_232
*333 n_233
*334 n_234
*335 n_235
*336 n_236
*337 n_237
*338 n_238
*339 n_239
*340 n_240
*341 n_261
*342 u_memory_rx_reg\[0\]_297
*343 u_memory_rx_reg\[1\]_298
*344 u_memory_rx_reg\[2\]_299
*345 u_memory_rx_reg\[3\]_300
*346 u_memory_rx_reg\[4\]_301
*347 u_memory_rx_reg\[5\]_302
*348 u_memory_rx_reg\[6\]_303
*349 u_memory_rx_reg\[7\]_304
*350 u_memory_rx_reg\[8\]_305
*351 u_memory_rx_reg\[9\]_306
*352 u_memory_rx_reg\[10\]_307
*353 u_memory_rx_reg\[11\]_308
*354 o_data[1]
*355 o_data[0]
*356 u_memory_pm00_reg\[0\]
*357 u_memory_pm10_reg\[1\]
*358 u_memory_pm00_reg\[1\]
*359 u_memory_pm10_reg\[0\]
*360 u_memory_pm11_reg\[1\]
*361 u_memory_pm01_reg\[1\]
*362 u_memory_pm01_reg\[0\]
*363 u_memory_pm11_reg\[0\]
*364 g6481__2398
*365 g6483__5107
*366 g6478__6260
*367 g6480__4319
*368 g6476__8428
*369 g6482__5526
*370 u_memory_dec_s5_reg\[0\]
*371 u_memory_dec_s3_reg\[0\]
*372 u_memory_dec_s5_reg\[2\]
*373 g6477__6783
*374 g6479__3680
*375 u_memory_dec_s3_reg\[2\]
*376 u_memory_dec_s7_reg
*377 g6494__1617
*378 g6495__2802
*379 u_memory_dec_s5_reg\[1\]
*380 u_memory_dec_s3_reg\[1\]
*381 u_memory_dec_s5_reg\[3\]
*382 u_memory_dec_s3_reg\[3\]
*383 g6493__1705
*384 g6496__5122
*385 g6497__8246
*386 g6505__7098
*387 g6503__6131
*388 g6500__1881
*389 g6507__5115
*390 g6501__7482
*391 g6499__4733
*392 g6498__6161
*393 g6502__9315
*394 g6508__9945
*395 g6506__2883
*396 g6504__2346
*397 g6509__1666
*398 g6511
*399 g6510
*400 g6513__7410
*401 g6514
*402 g6512__6417
*403 g6515
*404 g6516__5477
*405 g6518__2398
*406 g6517__5107
*407 g6519__6260
*408 g6520__4319
*409 g6521__8428
*410 g6531
*411 g6533
*412 g6530
*413 g6525__5526
*414 g6532
*415 g6539__6783
*416 g6535__3680
*417 g6522__1617
*418 g6523__2802
*419 g6527__1705
*420 g6529__5122
*421 g6534__8246
*422 g6537__7098
*423 g6536__6131
*424 g6528__1881
*425 g6524__5115
*426 g6538__7482
*427 g6543
*428 g6541__4733
*429 g6540__6161
*430 g6542__9315
*431 g6544
*432 g6545__9945
*433 g6559
*434 g6560
*435 g6549__2883
*436 u_memory_dec_s2_reg\[0\]
*437 u_memory_dec_s2_reg\[2\]
*438 u_memory_dec_s4_reg\[2\]
*439 u_memory_dec_s4_reg\[0\]
*440 u_memory_dec_s6_reg\[0\]
*441 g6546__2346
*442 g6548__1666
*443 g6563__7410
*444 g6564__6417
*445 g6567__5477
*446 g6568__2398
*447 u_memory_dec_s2_reg\[1\]
*448 u_memory_dec_s4_reg\[1\]
*449 u_memory_dec_s6_reg\[1\]
*450 u_memory_dec_s2_reg\[3\]
*451 u_memory_dec_s4_reg\[3\]
*452 g6569__5107
*453 g6566__6260
*454 g6565__4319
*455 g6570__8428
*456 g6571
*457 g6583__5526
*458 g6582
*459 g6581__6783
*460 g6591__3680
*461 g6590__1617
*462 g6578__2802
*463 g6574__1705
*464 g6572__5122
*465 g6579__8246
*466 u_memory_o_data_reg\[7\]
*467 g6580__7098
*468 g6584__6131
*469 g6587__1881
*470 g6588__5115
*471 g6589__7482
*472 g6575__4733
*473 g6573__6161
*474 g6577__9315
*475 g6576__9945
*476 g6592__2883
*477 g6547__2346
*478 g6594
*479 u_memory_o_data_reg\[6\]
*480 g6600
*481 u_memory_rx_reg_reg\[9\]
*482 u_memory_rx_reg_reg\[5\]
*483 u_memory_rx_reg_reg\[11\]
*484 u_memory_rx_reg_reg\[2\]
*485 u_memory_rx_reg_reg\[0\]
*486 g6597__1666
*487 g6603__7410
*488 u_memory_rx_reg_reg\[14\]
*489 g6595
*490 g6596
*491 u_memory_rx_reg_reg\[1\]
*492 u_memory_rx_reg_reg\[10\]
*493 u_memory_rx_reg_reg\[6\]
*494 u_memory_rx_reg_reg\[4\]
*495 u_memory_rx_reg_reg\[7\]
*496 u_memory_rx_reg_reg\[8\]
*497 u_memory_rx_reg_reg\[3\]
*498 u_memory_rx_reg_reg\[15\]
*499 u_memory_rx_reg_reg\[13\]
*500 u_memory_rx_reg_reg\[12\]
*501 g6585__6417
*502 g6586__5477
*503 g6599__2398
*504 g6598__5107
*505 g6634__6260
*506 g6617__4319
*507 g6625
*508 g6626
*509 g6627
*510 g6628
*511 g6630__8428
*512 g6631__5526
*513 g6616__6783
*514 g6635__3680
*515 g6638
*516 g6639
*517 g6640
*518 g6641
*519 g6642
*520 g6643
*521 g6644
*522 g6645
*523 u_memory_o_data_reg\[5\]
*524 g6646__1617
*525 g6615__2802
*526 g6629__1705
*527 g6632__5122
*528 g6633__8246
*529 g6636__7098
*530 g6614__6131
*531 g6653__1881
*532 g6648__5115
*533 g6649__7482
*534 g6650__4733
*535 g6651__6161
*536 g6652__9315
*537 g6647__9945
*538 g6601__2883
*539 g6602__2346
*540 g6656
*541 g6657
*542 u_memory_o_data_reg\[4\]
*543 u_control_state_reg\[0\]
*544 g6671
*545 g6670
*546 g6658
*547 g6672
*548 g6685
*549 g6676__1666
*550 g6674__7410
*551 g6673__6417
*552 g6677__5477
*553 g6667__2398
*554 u_memory_o_data_reg\[3\]
*555 g6669__5107
*556 g6668__6260
*557 u_control_state_reg\[2\]
*558 g6661__4319
*559 g6662__8428
*560 g6686__5526
*561 g6687__6783
*562 g6688__3680
*563 g6681__1617
*564 g6678__1705
*565 g6684__5122
*566 g6683__8246
*567 g6679__7098
*568 g6680__6131
*569 g6692__1881
*570 g6654__5115
*571 g6659__7482
*572 u_memory_o_data_reg\[2\]
*573 g6655__4733
*574 g6675__6161
*575 g6665__9315
*576 g6663__9945
*577 g6666__2883
*578 g6712__2346
*579 g6701
*580 g6697__1666
*581 g6703
*582 g6693__7410
*583 g6696__6417
*584 g6695__5477
*585 g6689__2398
*586 u_control_state_reg\[1\]
*587 g6702
*588 g6698__6260
*589 g6706__4319
*590 g6699__8428
*591 g6694__5526
*592 u_memory_o_done_reg
*593 g6707__6783
*594 g6718__3680
*595 g6710__1617
*596 g6714__2802
*597 g6715__1705
*598 g6700__5122
*599 g6709__8246
*600 g6721
*601 g6713__7098
*602 g6708__6131
*603 g6716__1881
*604 g6717__5115
*605 g6726
*606 g6724__7482
*607 g6722
*608 g6711
*609 g6727
*610 g6725__4733
*611 g6719__6161
*612 g6720
*613 g6730__9315
*614 g6729__9945
*615 g6732
*616 g6733
*617 g6723__2883
*618 g6731__2346
*619 g6736
*620 g6735
*621 g6734
*622 g6728__1666
*623 g6737__7410
*624 g6742
*625 g6738__6417
*626 g6740__5477
*627 g6744
*628 g6743
*629 g6741__2398
*630 g6739__5107
*631 g6748__6260
*632 g6749__4319
*633 g6745__8428
*634 g6746__5526
*635 g6747__6783
*636 g2


*PORTS

*1 I *C 56.12 94.76
*2 I *C 46 94.76
*3 I *C 51.06 94.76
*4 I *C 0 83.32
*5 I *C 0 78.44
*6 I *C 0 73.56
*7 I *C 0 68.68
*8 I *C 0 63.8
*9 I *C 0 58.92
*10 I *C 0 54.04
*11 I *C 0 49.16
*12 I *C 0 44.28
*13 I *C 0 39.4
*14 I *C 0 34.52
*15 I *C 0 29.64
*16 I *C 0 24.76
*17 I *C 0 19.88
*18 I *C 0 15
*19 I *C 0 10.12
*20 O *C 102.58 33.3
*21 O *C 102.58 38.18
*22 O *C 102.58 43.06
*23 O *C 102.58 47.94
*24 O *C 102.58 52.82
*25 O *C 102.58 57.7
*354 O *C 102.58 62.58
*355 O *C 102.58 67.46
*26 O *C 102.58 28.42


*D_NET *1 0.0841262

*CONN
*P *1 I *C 56.12 94.76 *L 0
*I *592:CK I *C 81.42 33.58 *L 0.00181 *D DFFRX1
*I *586:CK I *C 69.92 77.74 *L 0.00181 *D DFFRX1
*I *572:CK I *C 83.26 58.42 *L 0.00181 *D DFFRX1
*I *557:CK I *C 57.5 69.46 *L 0.00181 *D DFFRX1
*I *554:CK I *C 82.34 52.9 *L 0.00181 *D DFFRX1
*I *543:CK I *C 62.1 66.7 *L 0.00181 *D DFFRX1
*I *542:CK I *C 83.26 50.14 *L 0.00181 *D DFFRX1
*I *523:CK I *C 84.18 41.86 *L 0.00181 *D DFFRX1
*I *500:CK I *C 21.16 61.18 *L 0.00181 *D DFFRX1
*I *499:CK I *C 21.16 58.42 *L 0.00181 *D DFFRX1
*I *498:CK I *C 20.7 77.74 *L 0.00181 *D DFFRX1
*I *497:CK I *C 13.8 25.3 *L 0.00181 *D DFFRX1
*I *496:CK I *C 15.18 50.14 *L 0.00181 *D DFFRX1
*I *495:CK I *C 16.56 44.62 *L 0.00181 *D DFFRX1
*I *494:CK I *C 16.1 28.06 *L 0.00181 *D DFFRX1
*I *493:CK I *C 16.56 41.86 *L 0.00181 *D DFFRX1
*I *492:CK I *C 11.96 69.46 *L 0.00181 *D DFFRX1
*I *491:CK I *C 13.8 17.02 *L 0.00181 *D DFFRX1
*I *488:CK I *C 21.16 69.46 *L 0.00181 *D DFFRX1
*I *485:CK I *C 23 17.02 *L 0.00181 *D DFFRX1
*I *484:CK I *C 13.8 19.78 *L 0.00181 *D DFFRX1
*I *483:CK I *C 13.8 74.98 *L 0.00181 *D DFFRX1
*I *482:CK I *C 15.64 36.34 *L 0.00181 *D DFFRX1
*I *481:CK I *C 15.18 52.9 *L 0.00181 *D DFFRX1
*I *479:CK I *C 80.5 36.34 *L 0.00181 *D DFFRX1
*I *466:CK I *C 80.5 28.06 *L 0.00181 *D DFFRX1
*I *451:CK I *C 62.1 28.06 *L 0.00181 *D DFFRX1
*I *450:CK I *C 62.1 19.78 *L 0.00181 *D DFFRX1
*I *449:CK I *C 82.8 69.46 *L 0.00181 *D DFFRX1
*I *448:CK I *C 71.3 36.34 *L 0.00181 *D DFFRX1
*I *447:CK I *C 84.18 25.3 *L 0.00181 *D DFFRX1
*I *440:CK I *C 79.12 74.98 *L 0.00181 *D DFFRX1
*I *439:CK I *C 71.3 28.06 *L 0.00181 *D DFFRX1
*I *438:CK I *C 62.1 36.34 *L 0.00181 *D DFFRX1
*I *437:CK I *C 56.58 25.3 *L 0.00181 *D DFFRX1
*I *436:CK I *C 71.76 19.78 *L 0.00181 *D DFFRX1
*I *382:CK I *C 60.26 41.86 *L 0.00181 *D DFFRX1
*I *381:CK I *C 60.26 44.62 *L 0.00181 *D DFFRX1
*I *380:CK I *C 60.26 50.14 *L 0.00181 *D DFFRX1
*I *379:CK I *C 61.18 58.42 *L 0.00181 *D DFFRX1
*I *376:CK I *C 81.42 66.7 *L 0.00181 *D DFFRX1
*I *375:CK I *C 73.14 44.62 *L 0.00181 *D DFFRX1
*I *372:CK I *C 69.46 50.14 *L 0.00181 *D DFFRX1
*I *371:CK I *C 74.06 58.42 *L 0.00181 *D DFFRX1
*I *370:CK I *C 71.3 61.18 *L 0.00181 *D DFFRX1
*I *363:CK I *C 53.82 33.12 *L 0.00183 *D DFFSX1
*I *362:CK I *C 52.44 66.24 *L 0.00183 *D DFFSX1
*I *361:CK I *C 43.24 66.24 *L 0.00183 *D DFFSX1
*I *360:CK I *C 52.9 28.52 *L 0.00183 *D DFFSX1
*I *359:CK I *C 24.38 20.24 *L 0.00183 *D DFFSX1
*I *358:CK I *C 34.04 66.7 *L 0.00181 *D DFFRX1
*I *357:CK I *C 25.3 24.84 *L 0.00183 *D DFFSX1
*I *356:CK I *C 22.08 66.7 *L 0.00181 *D DFFRX1

*CAP
1 *523:CK 0.000247675
2 *447:CK 0.000353228
3 *572:CK 0.000109611
4 *542:CK 0.000192283
5 *449:CK 0.000199617
6 *554:CK 2.5276e-05
7 *376:CK 7.83213e-05
8 *592:CK 0.000169501
9 *479:CK 0.000233791
10 *466:CK 0.000260827
11 *440:CK 0.00017307
12 *371:CK 6.10144e-05
13 *375:CK 0.000525467
14 *436:CK 0.000104624
15 *370:CK 0.000476675
16 *448:CK 0.000543556
17 *439:CK 2.4396e-05
18 *586:CK 0.00171774
19 *372:CK 8.35036e-05
20 *543:CK 0.000126478
21 *438:CK 0.000238777
22 *451:CK 0.000250707
23 *450:CK 7.57791e-05
24 *379:CK 2.4836e-05
25 *380:CK 1.81381e-05
26 *381:CK 2.32226e-05
27 *382:CK 2.35648e-05
28 *557:CK 0.000144518
29 *437:CK 0.000195754
30 *1 1.8187e-05
31 *363:CK 0.000390287
32 *360:CK 0.000144322
33 *362:CK 5.47565e-05
34 *361:CK 6.52678e-05
35 *358:CK 9.43572e-05
36 *357:CK 0.000397669
37 *359:CK 0.0001453
38 *485:CK 7.57791e-05
39 *356:CK 0.000123153
40 *488:CK 2.77205e-05
41 *500:CK 1.1098e-05
42 *499:CK 0.000160114
43 *498:CK 0.000675558
44 *495:CK 0.000200448
45 *494:CK 0.000324481
46 *482:CK 0.000190914
47 *481:CK 4.40008e-06
48 *496:CK 0.000164612
49 *483:CK 0.000530942
50 *497:CK 3.56895e-06
51 *484:CK 3.04094e-05
52 *491:CK 1.54492e-05
53 *492:CK 0.000163487
54 *1:54 0.000843054
55 *1:55 0.000802231
56 *1:56 0.000936287
57 *1:57 0.00127275
58 *1:58 0.000486746
59 *1:59 0.000963225
60 *1:60 0.000672674
61 *1:61 0.00084853
62 *1:62 0.000924162
63 *1:63 0.00154066
64 *1:64 0.00103187
65 *1:65 0.00127656
66 *1:66 0.00161791
67 *1:67 0.00069619
68 *1:68 0.00118675
69 *1:69 0.00320398813
70 *1:70 0.000929296
71 *1:71 0.00258783
72 *1:72 0.000894193
73 *1:73 0.00123706
74 *1:74 0.00141321
75 *1:75 0.00125505
76 *1:76 0.00050552
77 *1:77 0.000535734
78 *1:78 0.00060589
79 *1:79 0.00116543
80 *1:80 0.00149955
81 *1:81 0.00164656
82 *1:82 0.00200947
83 *1:83 0.000114011
84 *1:84 0.00051872
85 *1:85 0.000789569
86 *1:86 0.000540036
87 *1:87 0.000691887
88 *1:88 0.00103192
89 *1:89 0.000918198
90 *1:90 0.000792551
91 *1:91 0.00192054
92 *1:92 0.00142484
93 *1:93 0.000713154
94 *1:94 0.000314312
95 *1:95 0.000332303
96 *1:96 0.000432723
97 *1:97 0.00173642
98 *1:98 0.000234133
99 *1:99 0.00193911
100 *1:100 0.00126131
101 *1:101 0.000901869
102 *1:102 0.0010855
103 *1:103 0.00074415
104 *1:104 0.000590392
105 *1:105 0.00053896
106 *1:106 0.00132437
107 *1:107 0.00133635
108 *1:107 *2:106 6.58035e-05
109 *1:107 *483:RN 1.71661e-05
110 *1:107 *492:RN 7.77245e-05
111 *1:99 *2:100 9.13739e-05
112 *1:99 *2:101 0.000133514
113 *1:99 *481:RN 2.67029e-05
114 *1:97 *2:102 1.66893e-06
115 *1:92 *2:91 4.72069e-05
116 *356:CK *2:102 6.91414e-06
117 *1:91 *2:90 7.77245e-05
118 *1:91 *2:91 0.000148714
119 *359:CK *485:RN 1.84774e-06
120 *359:CK *2:88 3.33786e-06
121 *359:CK *359:SN 1.19209e-06
122 *1:89 *485:RN 3.17693e-05
123 *357:CK *2:88 0.000115693
124 *357:CK *2:89 2.02656e-05
125 *357:CK *359:SN 1.60933e-06
126 *358:CK *2:91 1.50204e-05
127 *1:88 *2:86 0.000473589
128 *1:88 *361:SN 6.81281e-05
129 *1:88 *2:90 7.19428e-05
130 *1:87 *2:80 0.000260353
131 *1:87 *2:85 0.000699908
132 *1:87 *362:SN 4.99487e-05
133 *362:CK *2:85 5.02467e-05
134 *1:85 *2:84 2.26498e-06
135 *1:85 *2:83 9.41753e-06
136 *1:85 *360:SN 2.98023e-05
137 *1:84 *2:84 4.88758e-05
138 *363:CK *360:SN 5.54323e-06
139 *437:CK *2:84 4.77433e-05
140 *1:82 *2:82 4.38094e-05
141 *1:82 *2:84 0.000247985
142 *1:79 *2:82 0.000247985
143 *1:73 *2:80 1.32322e-05
144 *1:72 *2:80 0.000232279
145 *451:CK *2:82 0.000226617
146 *451:CK *2:84 7.65324e-05
147 *543:CK *2:72 5.126e-06
148 *543:CK *2:80 2.28286e-05
149 *372:CK *2:70 1.27554e-05
150 *1:70 *2:70 0.000172973
151 *1:70 *2:74 1.30534e-05
152 *1:70 *2:77 2.24113e-05
153 *586:CK *586:RN 0.00015533
154 *1:69 *440:RN 3.93391e-06
155 *1:69 *586:RN 0.000211477
156 *1:69 *2:69 0.00015533
157 *1:67 *370:RN 6.61612e-06
158 *1:66 *2:66 2.43187e-05
159 *1:66 *450:RN 2.08616e-06
160 *375:CK *372:RN 6.83069e-05
161 *1:65 *2:70 3.98159e-05
162 *1:64 *2:67 0.000195116
163 *1:58 *2:58 4.94123e-05
164 *1:55 *2:58 0.000195116
165 *1:55 *2:67 8.2016e-05
166 *1:55 *2:64 6.75917e-05
167 *1:55 *371:RN 4.97699e-05
168 *1:55 *370:RN 4.98295e-05
169 *1:54 *2:58 6.65784e-05
170 *572:CK *2:58 0.000112293376
171 *1:107 *7 0.000417352
172 *1:106 *7:2 0.000417351438
173 *1:105 *192:36 0.000558496
174 *483:CK *551:B1 1.49012e-06
175 *1:97 *192:22 3.69549e-06
176 *1:94 *192:22 4.47035e-06
177 *1:93 *192:22 1.37091e-06
178 *485:CK *534:B1 4.70877e-06
179 *1:90 *192:20 0.000558495002
180 *1:105 *343:4 0.000498056
181 *1:90 *343:3 0.000498056813
182 *1:104 *191:24 0.000117242
183 *497:CK *191:24 3.09944e-06
184 *1:103 *191:24 0.000167727
185 *1:102 *526:C1 1.77622e-05
186 *1:102 *191:23 0.000209033
187 *1:102 *191:24 4.51207e-05
188 *1:101 *191:16 0.000418901
189 *1:101 *524:C1 2.3365e-05
190 *1:101 *191:23 3.17693e-05
191 *1:101 *191:20 3.99351e-06
192 *1:100 *191:18 9.31025e-05
193 *1:100 *532:C1 1.01924e-05
194 *1:100 *191:19 5.81741e-05
195 *1:100 *191:20 8.88109e-05
196 *1:100 *537:C1 8.28505e-06
197 *481:CK *191:18 8.9407e-07
198 *482:CK *191:23 2.99215e-05
199 *494:CK *191:24 2.8789e-05
200 *1:96 *191:21 0.00029093
201 *1:96 *191:20 8.46386e-06
202 *1:90 *534:A1 9.55746459e-07
203 *1:92 *338:20 0.000256538
204 *1:91 *338:20 0.000607044
205 *358:CK *338:20 4.70281e-05
206 *1:88 *338:20 0.000247985
207 *1:88 *338:19 0.000607044
208 *1:87 *338:19 0.000247985
209 *361:CK *338:20 4.85182e-05
210 *1:75 *374:A0 6.55260272e-07
211 *1:86 *250:4 0.000238597
212 *1:72 *460:Y 0.000238597805
213 *1:73 *34:6 0.000190734863
214 *1:71 *152:4 0.000306844707
215 *372:CK *315:12 3.27826e-06
216 *448:CK *315:10 3.9041e-05
217 *448:CK *315:16 0.000147343
218 *448:CK *315:18 2.72989e-05
219 *370:CK *315:17 3.44515e-05
220 *370:CK *315:13 0.000247359
221 *375:CK *388:S0 4.97699e-05
222 *1:65 *388:S0 0.000274241
223 *1:65 *315:12 4.95911e-05
224 *1:65 *315:14 6.59823e-05
225 *1:64 *388:S0 0.000262320015
226 *1:68 *177:5 0.000220418
227 *1:66 *502:S0 0.000220417938
228 *1:64 *326:8 0.000268281
229 *1:55 *326:7 0.000268280016
230 *1:62 *234:8 0.000359416
231 *1:60 *234:7 0.000359416031
232 *1:56 *146:5 0.000233173
233 *542:CK *570:A 0.000233173758

*RES
1 *492:CK *1:107 11.8781
2 *1:107 *1:106 8.27986
3 *491:CK *1:105 4.54226
4 *484:CK *1:104 4.58153
5 *497:CK *1:103 4.51137
6 *483:CK *1:107 15.6983
7 *1:105 *1:104 2.17865
8 *1:104 *1:103 4.64297
9 *1:103 *1:102 8.97474
10 *1:102 *1:101 7.2946
11 *1:101 *1:100 4.57146
12 *1:100 *1:99 13.0108
13 *496:CK *1:98 6.66652
14 *481:CK *1:98 4.51406
15 *1:98 *1:99 3.51705
16 *1:99 *1:97 11.769
17 *482:CK *1:101 11.6267
18 *494:CK *1:102 11.7563
19 *493:CK *1:96 4.49996
20 *495:CK *1:96 6.75582
21 *1:96 *1:100 7.27077
22 *498:CK *1:106 18.3214
23 *499:CK *1:95 6.76018
24 *500:CK *1:95 4.53957
25 *488:CK *1:94 4.58153
26 *1:95 *1:97 7.05458
27 *1:94 *1:93 6.10457
28 *1:106 *1:94 0.0849302
29 *1:97 *1:93 7.54402
30 *1:93 *1:92 0.0204773
31 *356:CK *1:92 8.20164
32 *1:92 *1:91 1.82214
33 *485:CK *1:90 8.05931
34 *1:90 *1:105 4.90682
35 *359:CK *1:89 11.6119
36 *1:89 *1:90 6.69136
37 *357:CK *1:89 15.0508
38 *358:CK *1:91 8.20164
39 *1:91 *1:88 1.38977
40 *1:88 *1:87 1.38977
41 *361:CK *1:88 8.02742
42 *1:87 *1:86 4.32842
43 *362:CK *1:87 8.02742
44 *360:CK *1:85 11.6459
45 *1:85 *1:84 4.65673
46 *363:CK *1:85 8.4702
47 *1:83 *1 0.308166
48 *437:CK *1:84 9.48701
49 *1:84 *1:82 3.46334
50 *1:86 *1:81 1.84832
51 *1:81 *1:80 21.9999542
52 *1:80 *1:83 7.05458
53 *1:82 *1:79 7.59706
54 *557:CK *1:81 11.6636
55 *382:CK *1:78 4.58153
56 *381:CK *1:77 4.58153
57 *380:CK *1:76 4.55501
58 *1:79 *1:75 6.75011
59 *1:75 *1:78 4.61175
60 *1:78 *1:77 2.17865
61 *1:77 *1:76 4.64297
62 *1:76 *1:74 3.6097
63 *379:CK *1:73 4.58153
64 *1:74 *1:73 10.3877
65 *1:73 *1:72 10.7358
66 *1:72 *1:86 4.18609
67 *450:CK *1:71 8.03615
68 *451:CK *1:79 12.0426
69 *438:CK *1:75 11.7707
70 *543:CK *1:72 8.14155
71 *1:71 *1:82 5.31032
72 *372:CK *1:70 8.07207
73 *1:70 *1:74 1.24542
74 *586:CK *1:69 12.8339
75 *439:CK *1:68 4.58153
76 *448:CK *1:68 11.6888
77 *370:CK *1:67 17.8129
78 *1:66 *1:71 1.33941
79 *1:68 *1:66 10.5126
80 *436:CK *1:66 8.05662
81 *375:CK *1:65 19.7058
82 *1:65 *1:70 0.596862
83 *371:CK *1:67 8.03883
84 *1:67 *1:64 4.44054
85 *1:64 *1:65 9.4145
86 *1:69 *1:63 5.34993
87 *440:CK *1:69 11.525
88 *466:CK *1:62 11.8285
89 *479:CK *1:61 11.7707
90 *592:CK *1:60 11.6918
91 *376:CK *1:63 8.0489
92 *1:63 *1:59 3.67147
93 *554:CK *1:58 4.58153
94 *1:62 *1:60 4.57146
95 *1:60 *1:61 2.39282
96 *1:61 *1:57 4.57146
97 *1:57 *1:56 7.2946
98 *1:56 *1:58 1.94198
99 *1:58 *1:55 6.95018
100 *1:55 *1:64 4.54629
101 *449:CK *1:59 6.60408
102 *1:54 *1:55 4.29653
103 *1:59 *1:54 7.2946
104 *542:CK *1:56 11.6814
105 *572:CK *1:54 11.5764
106 *447:CK *1:62 13.6305
107 *523:CK *1:57 11.7707
*END

*D_NET *2 0.0855911

*CONN
*P *2 I *C 46 94.76 *L 0
*I *592:RN I *C 85.56 31.28 *L 0.00487 *D DFFRX1
*I *586:RN I *C 74.06 80.04 *L 0.00487 *D DFFRX1
*I *572:RN I *C 87.4 56.12 *L 0.00487 *D DFFRX1
*I *557:RN I *C 61.64 71.76 *L 0.00487 *D DFFRX1
*I *554:RN I *C 86.48 55.2 *L 0.00487 *D DFFRX1
*I *543:RN I *C 66.24 64.4 *L 0.00487 *D DFFRX1
*I *542:RN I *C 87.4 47.84 *L 0.00487 *D DFFRX1
*I *523:RN I *C 88.32 39.56 *L 0.00487 *D DFFRX1
*I *500:RN I *C 25.3 63.48 *L 0.00487 *D DFFRX1
*I *499:RN I *C 25.3 56.12 *L 0.00487 *D DFFRX1
*I *498:RN I *C 24.84 80.04 *L 0.00487 *D DFFRX1
*I *497:RN I *C 17.94 23 *L 0.00487 *D DFFRX1
*I *496:RN I *C 19.32 47.84 *L 0.00487 *D DFFRX1
*I *495:RN I *C 20.7 46.92 *L 0.00487 *D DFFRX1
*I *494:RN I *C 20.24 30.36 *L 0.00487 *D DFFRX1
*I *493:RN I *C 20.7 39.56 *L 0.00487 *D DFFRX1
*I *492:RN I *C 16.1 71.76 *L 0.00487 *D DFFRX1
*I *491:RN I *C 17.94 14.72 *L 0.00487 *D DFFRX1
*I *488:RN I *C 25.3 71.76 *L 0.00487 *D DFFRX1
*I *485:RN I *C 27.14 14.72 *L 0.00487 *D DFFRX1
*I *484:RN I *C 17.94 22.08 *L 0.00487 *D DFFRX1
*I *483:RN I *C 17.94 72.68 *L 0.00487 *D DFFRX1
*I *482:RN I *C 19.78 38.64 *L 0.00487 *D DFFRX1
*I *481:RN I *C 19.32 55.2 *L 0.00487 *D DFFRX1
*I *479:RN I *C 84.64 38.64 *L 0.00487 *D DFFRX1
*I *466:RN I *C 84.64 30.36 *L 0.00487 *D DFFRX1
*I *451:RN I *C 66.24 30.36 *L 0.00487 *D DFFRX1
*I *450:RN I *C 66.24 22.08 *L 0.00487 *D DFFRX1
*I *449:RN I *C 86.94 71.76 *L 0.00487 *D DFFRX1
*I *448:RN I *C 75.44 38.64 *L 0.00487 *D DFFRX1
*I *447:RN I *C 88.32 23 *L 0.00487 *D DFFRX1
*I *440:RN I *C 83.26 72.68 *L 0.00487 *D DFFRX1
*I *439:RN I *C 75.44 30.36 *L 0.00487 *D DFFRX1
*I *438:RN I *C 66.24 38.64 *L 0.00487 *D DFFRX1
*I *437:RN I *C 60.72 23 *L 0.00487 *D DFFRX1
*I *436:RN I *C 75.9 22.08 *L 0.00487 *D DFFRX1
*I *382:RN I *C 64.4 39.56 *L 0.00487 *D DFFRX1
*I *381:RN I *C 64.4 46.92 *L 0.00487 *D DFFRX1
*I *380:RN I *C 64.4 47.84 *L 0.00487 *D DFFRX1
*I *379:RN I *C 65.32 56.12 *L 0.00487 *D DFFRX1
*I *376:RN I *C 85.56 64.4 *L 0.00487 *D DFFRX1
*I *375:RN I *C 77.28 46.92 *L 0.00487 *D DFFRX1
*I *372:RN I *C 73.6 47.84 *L 0.00487 *D DFFRX1
*I *371:RN I *C 78.2 56.12 *L 0.00487 *D DFFRX1
*I *370:RN I *C 75.44 63.48 *L 0.00487 *D DFFRX1
*I *363:SN I *C 56.12 32.66 *L 0.00376 *D DFFSX1
*I *362:SN I *C 54.74 65.78 *L 0.00376 *D DFFSX1
*I *361:SN I *C 45.54 65.78 *L 0.00376 *D DFFSX1
*I *360:SN I *C 55.2 28.98 *L 0.00376 *D DFFSX1
*I *359:SN I *C 26.68 20.7 *L 0.00376 *D DFFSX1
*I *358:RN I *C 38.18 64.4 *L 0.00487 *D DFFRX1
*I *357:SN I *C 27.6 24.38 *L 0.00376 *D DFFSX1
*I *356:RN I *C 26.22 64.4 *L 0.00487 *D DFFRX1

*CAP
1 *523:RN 0.000274302
2 *447:RN 0.000872686
3 *572:RN 0.000111519
4 *542:RN 0.000112523
5 *449:RN 8.08176e-05
6 *554:RN 8.56953e-05
7 *376:RN 0.000149823
8 *592:RN 1.58766e-05
9 *479:RN 0.000317532
10 *466:RN 0.000197597
11 *440:RN 0.000345842
12 *371:RN 0.000160583
13 *375:RN 0.000426372
14 *436:RN 0.000136959
15 *370:RN 0.000642619
16 *448:RN 0.000546356
17 *439:RN 2.29063e-05
18 *586:RN 0.00187219
19 *372:RN 0.000145854
20 *543:RN 0.000238771
21 *438:RN 0.000327431
22 *451:RN 0.00022758
23 *450:RN 0.000262059
24 *379:RN 0.00015934
25 *380:RN 2.30019e-05
26 *381:RN 3.14184e-05
27 *382:RN 2.9123e-05
28 *557:RN 0.000673894
29 *437:RN 0.000306868
30 *363:SN 0.000295821
31 *360:SN 6.26934e-05
32 *362:SN 6.77146e-05
33 *2 0.00176995
34 *361:SN 4.85862e-05
35 *358:RN 0.00014858
36 *357:SN 0.000129882
37 *485:RN 0.000490405
38 *359:SN 2.34323e-05
39 *356:RN 0.000123665
40 *488:RN 0.000124861
41 *500:RN 2.92187e-05
42 *499:RN 8.37825e-05
43 *498:RN 0.000655196
44 *495:RN 0.000130695
45 *493:RN 0.000128639
46 *494:RN 0.000179425
47 *482:RN 0.000299455
48 *481:RN 0.000432685
49 *496:RN 0.000258425
50 *483:RN 0.00021376
51 *497:RN 2.73536e-05
52 *484:RN 2.83101e-05
53 *491:RN 0.000483375
54 *492:RN 0.000309641
55 *2:54 0.000325853
56 *2:55 0.00109577
57 *2:56 0.000839307
58 *2:57 0.000543869
59 *2:58 0.00104647
60 *2:59 0.00155873
61 *2:60 0.00122298
62 *2:61 0.000803776
63 *2:62 0.000433641
64 *2:63 0.00161769
65 *2:64 0.000927681
66 *2:65 0.00141464
67 *2:66 0.00147451
68 *2:67 0.00106536
69 *2:68 0.000994391
70 *2:69 0.0031339525
71 *2:70 0.00113374
72 *2:71 0.00196038
73 *2:72 0.00121169
74 *2:73 0.00112987
75 *2:74 0.00132938
76 *2:75 0.000977271
77 *2:76 0.00103738
78 *2:77 0.000181146
79 *2:78 0.000499682
80 *2:79 0.000485623
81 *2:80 0.00152779
82 *2:81 0.00134114
83 *2:82 0.00115818
84 *2:83 0.000329391
85 *2:84 0.000585377
86 *2:85 0.000984588
87 *2:86 0.000611583
88 *2:87 0.00265407
89 *2:88 0.00104479
90 *2:89 0.00076528
91 *2:90 0.00228298
92 *2:91 0.00147633
93 *2:92 0.00056974
94 *2:93 0.000959912
95 *2:94 0.000841364
96 *2:95 0.00110376
97 *2:96 0.000590399
98 *2:97 0.000540234
99 *2:98 0.000946618
100 *2:99 0.00084012
101 *2:100 0.00153874
102 *2:101 0.000798898
103 *2:102 0.00127936
104 *2:103 0.00150196
105 *2:104 0.000663469
106 *2:105 0.000557259
107 *2:106 0.00101457
108 *492:RN *1:107 7.77245e-05
109 *2:106 *1:107 6.58035e-05
110 *483:RN *1:107 1.71661e-05
111 *2:102 *356:CK 6.91414e-06
112 *2:102 *1:97 1.66893e-06
113 *2:101 *1:99 0.000133514
114 *481:RN *1:99 2.67029e-05
115 *2:100 *1:99 9.13739e-05
116 *2:91 *1:91 0.000148714
117 *2:91 *358:CK 1.50204e-05
118 *2:91 *1:92 4.72069e-05
119 *2:90 *1:88 7.19428e-05
120 *2:90 *1:91 7.77245e-05
121 *359:SN *357:CK 1.60933e-06
122 *359:SN *359:CK 1.19209e-06
123 *2:89 *357:CK 2.02656e-05
124 *2:88 *357:CK 0.000115693
125 *2:88 *359:CK 3.33786e-06
126 *485:RN *1:89 3.17693e-05
127 *485:RN *359:CK 1.84774e-06
128 *361:SN *1:88 6.81281e-05
129 *2:86 *1:88 0.000473589
130 *362:SN *1:87 4.99487e-05
131 *2:85 *362:CK 5.02467e-05
132 *2:85 *1:87 0.000699908
133 *360:SN *363:CK 5.54323e-06
134 *360:SN *1:85 2.98023e-05
135 *2:84 *451:CK 7.65324e-05
136 *2:84 *1:82 0.000247985
137 *2:84 *1:84 4.88758e-05
138 *2:84 *437:CK 4.77433e-05
139 *2:84 *1:85 2.26498e-06
140 *2:83 *1:85 9.41753e-06
141 *2:82 *451:CK 0.000226617
142 *2:82 *1:82 4.38094e-05
143 *2:82 *1:79 0.000247985
144 *2:80 *543:CK 2.28286e-05
145 *2:80 *1:72 0.000232279
146 *2:80 *1:73 1.32322e-05
147 *2:80 *1:87 0.000260353
148 *2:77 *1:70 2.24113e-05
149 *2:74 *1:70 1.30534e-05
150 *2:72 *543:CK 5.126e-06
151 *450:RN *1:66 2.08616e-06
152 *372:RN *375:CK 6.83069e-05
153 *2:70 *1:65 3.98159e-05
154 *2:70 *1:70 0.000172973
155 *2:70 *372:CK 1.27554e-05
156 *586:RN *1:69 0.000211477
157 *586:RN *586:CK 0.00015533
158 *2:69 *1:69 0.00015533
159 *370:RN *1:55 4.98295e-05
160 *370:RN *1:67 6.61612e-06
161 *2:67 *1:64 0.000195116
162 *2:67 *1:55 8.2016e-05
163 *2:66 *1:66 2.43187e-05
164 *371:RN *1:55 4.97699e-05
165 *2:64 *1:55 6.75917e-05
166 *440:RN *1:69 3.93391e-06
167 *2:58 *572:CK 0.000112295
168 *2:58 *1:54 6.65784e-05
169 *2:58 *1:55 0.000195116
170 *2:58 *1:58 4.94106761e-05
171 *2:103 *346:3 0.000188708301
172 *2:101 *496:Q 0.00015974
173 *2:100 *350:3 0.000159740898
174 *2:91 *336:10 0.000385761
175 *2:90 *336:8 0.0003857615
176 *2:87 *252:4 0.000206113
177 *2:86 *467:Y 0.000206112742
178 *2:81 *242:6 0.000202
179 *2:71 *463:B 0.000202000273
180 *2:80 *34:5 0.000186085703
181 *2:76 *234:11 0.000297666
182 *451:RN *234:10 0.000297665211
183 *2:76 *464:S0 1.39475e-05
184 *2:73 *392:S0 1.5974e-05
185 *372:RN *388:S0 5.04255e-05
186 *2:70 *315:12 0.000254333
187 *2:70 *388:S0 0.000277698
188 *2:70 *315:14 6.78301e-05
189 *2:65 *388:S0 0.000203907
190 *375:RN *388:S0 4.99487e-05
191 *2:64 *388:S0 0.000132501716
192 *2:71 *475:A 0.000279844
193 *2:66 *230:5 0.000279843617
194 *2:66 *46:4 0.000346243
195 *436:RN *436:Q 0.000346243797
196 *2:65 *317:12 0.000400603
197 *2:64 *317:11 0.000400602625
198 *2:64 *131:5 0.000276684766
199 *466:RN *502:Y 0.000255048
200 *2:62 *477:A 0.000255048562
201 *2:60 *591:A 0.000215530391
202 *2:54 *223:11 0.000259817
203 *572:RN *223:9 0.000259816281
204 *542:RN *570:A 0.00020051002

*RES
1 *492:RN *2:106 8.59851
2 *491:RN *2:105 10.8675
3 *484:RN *2:105 4.5815
4 *497:RN *2:104 4.5815
5 *483:RN *2:106 9.18355
6 *2:105 *2:104 0.535628
7 *2:104 *2:103 9.83974
8 *2:106 *2:102 0.813127
9 *496:RN *2:101 11.7901
10 *481:RN *2:100 11.7799
11 *482:RN *2:99 11.7308
12 *494:RN *2:98 11.6482
13 *493:RN *2:97 11.5889
14 *495:RN *2:96 11.5992
15 *2:103 *2:98 3.48217
16 *2:98 *2:99 7.29482
17 *2:99 *2:97 0.214251
18 *2:97 *2:96 6.20538
19 *2:96 *2:101 0.758971
20 *2:101 *2:100 6.20538
21 *2:100 *2:95 8.93491
22 *2:102 *2:94 12.387
23 *498:RN *2:93 11.6933
24 *2:93 *2:102 3.89605
25 *499:RN *2:95 5.13966
26 *500:RN *2:92 4.5815
27 *488:RN *2:93 11.5557
28 *2:95 *2:92 5.39739
29 *2:92 *2:94 4.58426
30 *2:94 *2:91 0.0924996
31 *356:RN *2:91 8.34433
32 *2:91 *2:90 1.82193
33 *359:SN *2:89 4.5815
34 *2:89 *2:88 6.28958
35 *2:88 *2:103 5.63378
36 *485:RN *2:89 16.4009
37 *357:SN *2:88 8.1621
38 *358:RN *2:90 8.34433
39 *2:90 *2:87 4.90485
40 *361:SN *2:86 8.0692
41 *2:87 *2 25.9062042
42 *2:86 *2:87 3.51696
43 *362:SN *2:85 8.04904
44 *2:85 *2:86 1.31753
45 *360:SN *2:84 8.11585
46 *363:SN *2:83 7.5146
47 *2:83 *2:84 3.51696
48 *2:84 *2:82 11.9277
49 *437:RN *2:82 8.56846
50 *2:82 *2:81 4.25617
51 *557:RN *2:80 12.3859
52 *2:80 *2:85 4.51074
53 *382:RN *2:79 4.5815
54 *381:RN *2:78 4.5815
55 *380:RN *2:77 4.5815
56 *2:81 *2:76 4.82065
57 *2:76 *2:75 7.29482
58 *2:75 *2:79 0.379485
59 *2:79 *2:78 6.28562
60 *2:78 *2:77 0.535628
61 *2:77 *2:74 4.40796
62 *2:74 *2:73 9.17762
63 *2:73 *2:72 7.29482
64 *2:72 *2:80 7.66561
65 *379:RN *2:73 11.6123
66 *450:RN *2:71 11.7538
67 *451:RN *2:76 11.7925
68 *438:RN *2:75 11.8028
69 *543:RN *2:72 11.6988
70 *2:71 *2:81 9.08591
71 *372:RN *2:70 8.9693
72 *2:70 *2:74 1.31753
73 *586:RN *2:69 13.2567
74 *439:RN *2:68 4.5815
75 *448:RN *2:68 11.6889
76 *370:RN *2:67 20.1803
77 *2:66 *2:71 9.7255
78 *2:68 *2:66 6.87066
79 *436:RN *2:66 11.6095
80 *2:65 *2:70 0.452615
81 *375:RN *2:65 16.9646
82 *371:RN *2:64 9.20133
83 *2:64 *2:65 14.4418
84 *2:67 *2:64 0.0924996
85 *440:RN *2:69 11.936
86 *2:69 *2:63 3.95218
87 *466:RN *2:62 12.2601
88 *479:RN *2:61 11.8747
89 *592:RN *2:62 4.54197
90 *376:RN *2:60 11.5545
91 *2:62 *2:59 7.19876
92 *2:58 *2:67 1.02935
93 *2:60 *2:58 9.17762
94 *554:RN *2:57 11.5636
95 *449:RN *2:63 8.01821
96 *2:59 *2:61 6.20538
97 *2:61 *2:56 0.214251
98 *2:56 *2:55 7.29482
99 *2:55 *2:57 6.20538
100 *2:57 *2:54 0.214251
101 *2:54 *2:58 4.91315
102 *2:63 *2:60 9.81484
103 *542:RN *2:55 11.5739
104 *572:RN *2:54 11.6123
105 *447:RN *2:59 19.0051
106 *523:RN *2:56 11.7332
*END

*D_NET *3 0.00406384

*CONN
*P *3 I *C 51.06 94.76 *L 0
*I *611:A I *C 64.86 73.6 *L 0.00184 *D AND3X2

*CAP
1 *611:A 0.00120968
2 *3 1.75815e-05
3 *3:2 0.00201433891
4 *3:3 0.000822241

*RES
1 *3:3 *3 0.307989
2 *3:2 *3:3 9.14452
3 *611:A *3:2 22.7557411
*END

*D_NET *4 0.00342035

*CONN
*P *4 I *C 0 83.32 *L 0
*I *551:B0 I *C 12.42 73.6 *L 0.00308 *D AOI22X1

*CAP
1 *4 0.00171017641
2 *551:B0 0.00171017641

*RES
1 *551:B0 *4 25.0649
*END

*D_NET *5 0.00542796

*CONN
*P *5 I *C 0 78.44 *L 0
*I *550:B0 I *C 16.56 65.32 *L 0.00308 *D AOI22X1

*CAP
1 *5 0.00271397844
2 *550:B0 0.00271397844

*RES
1 *550:B0 *5 29.6021
*END

*D_NET *6 0.0047965

*CONN
*P *6 I *C 0 73.56 *L 0
*I *549:B0 I *C 14.72 57.04 *L 0.00308 *D AOI22X1

*CAP
1 *6 0.0023982525
2 *549:B0 0.0023982525

*RES
1 *549:B0 *6 31.6849
*END

*D_NET *7 0.00513506

*CONN
*P *7 I *C 0 68.68 *L 0
*I *552:B0 I *C 18.4 62.56 *L 0.00308 *D AOI22X1

*CAP
1 *7 0.00160055
2 *552:B0 0.000549627
3 *7:2 0.00215017797
4 *7:2 *1:106 0.000417352
5 *7 *1:107 0.000417351438

*RES
1 *552:B0 *7:2 10.2825
2 *7:2 *7 13.3084059
*END

*D_NET *8 0.00286615

*CONN
*P *8 I *C 0 63.8 *L 0
*I *529:B0 I *C 11.96 65.78 *L 0.00309 *D AOI222X1

*CAP
1 *8 0.00143307453
2 *529:B0 0.00143307453

*RES
1 *529:B0 *8 18.2066
*END

*D_NET *9 0.00297904

*CONN
*P *9 I *C 0 58.92 *L 0
*I *527:B0 I *C 13.8 62.1 *L 0.00309 *D AOI222X1

*CAP
1 *9 0.00148952
2 *527:B0 0.00148952

*RES
1 *527:B0 *9 19.5791
*END

*D_NET *10 0.00223041

*CONN
*P *10 I *C 0 54.04 *L 0
*I *533:B0 I *C 11.96 53.82 *L 0.00309 *D AOI222X1

*CAP
1 *10 0.00111520289
2 *533:B0 0.00111520289

*RES
1 *533:B0 *10 9.93824
*END

*D_NET *11 0.00228858

*CONN
*P *11 I *C 0 49.16 *L 0
*I *532:B0 I *C 11.96 49.22 *L 0.00309 *D AOI222X1

*CAP
1 *11 0.00114429
2 *532:B0 0.00114429

*RES
1 *532:B0 *11 9.89747
*END

*D_NET *12 0.00249934

*CONN
*P *12 I *C 0 44.28 *L 0
*I *537:B0 I *C 11.96 45.54 *L 0.00309 *D AOI222X1

*CAP
1 *12 0.00124967102
2 *537:B0 0.00124967102

*RES
1 *537:B0 *12 17.1535
*END

*D_NET *13 0.00278997

*CONN
*P *13 I *C 0 39.4 *L 0
*I *528:B0 I *C 11.96 40.94 *L 0.00309 *D AOI222X1

*CAP
1 *13 0.00139498703
2 *528:B0 0.00139498703

*RES
1 *528:B0 *13 17.4035
*END

*D_NET *14 0.00280452

*CONN
*P *14 I *C 0 34.52 *L 0
*I *524:B0 I *C 12.42 37.26 *L 0.00309 *D AOI222X1

*CAP
1 *14 0.00140225891
2 *524:B0 0.00140225891

*RES
1 *524:B0 *14 18.8615
*END

*D_NET *15 0.00279987

*CONN
*P *15 I *C 0 29.64 *L 0
*I *526:B0 I *C 12.88 28.98 *L 0.00309 *D AOI222X1

*CAP
1 *15 0.00139993422
2 *526:B0 0.00139993422

*RES
1 *526:B0 *15 16.95
*END

*D_NET *16 0.00279891

*CONN
*P *16 I *C 0 24.76 *L 0
*I *531:B0 I *C 12.42 23.92 *L 0.00308 *D AOI22X1

*CAP
1 *16 0.0013994575
2 *531:B0 0.0013994575

*RES
1 *531:B0 *16 16.9239
*END

*D_NET *17 0.0027411

*CONN
*P *17 I *C 0 19.88 *L 0
*I *536:B0 I *C 12.42 21.16 *L 0.00308 *D AOI22X1

*CAP
1 *17 0.00137054922
2 *536:B0 0.00137054922

*RES
1 *536:B0 *17 17.2434
*END

*D_NET *18 0.00273526

*CONN
*P *18 I *C 0 15 *L 0
*I *535:B0 I *C 12.42 15.64 *L 0.00308 *D AOI22X1

*CAP
1 *18 0.00136762859
2 *535:B0 0.00136762859

*RES
1 *535:B0 *18 16.8729
*END

*D_NET *19 0.00447881

*CONN
*P *19 I *C 0 10.12 *L 0
*I *534:B0 I *C 22.54 12.88 *L 0.00308 *D AOI22X1

*CAP
1 *19 0.00223940609
2 *534:B0 0.00223940609

*RES
1 *534:B0 *19 19.7012
*END

*D_NET *20 0.00426614

*CONN
*P *20 O *C 102.58 33.3 *L 0.1
*I *477:B I *C 91.08 29.9 *L 0.00181 *D MX2X1
*I *466:Q O *C 87.4 29.9 *L 0 *D DFFRX1

*CAP
1 *20 0.000822666
2 *477:B 0.000177088
3 *466:Q 8.15397e-05
4 *20:3 0.00128763914
5 *20:4 0.00122887
6 *20:5 0.00066835

*RES
1 *20:5 *466:Q 5.05036
2 *20:4 *20:5 4.04201
3 *477:B *20:4 8.56758
4 *20:3 *20:4 10.6809139
5 *20 *20:3 1.58317
*END

*D_NET *21 0.00342619

*CONN
*P *21 O *C 102.58 38.18 *L 0.1
*I *501:B I *C 91.08 38.18 *L 0.00181 *D MX2X1
*I *479:Q O *C 87.4 38.18 *L 0 *D DFFRX1

*CAP
1 *21 0.00101228
2 *479:Q 0.000601878
3 *501:B 9.89406e-05
4 *21:3 0.00171309703

*RES
1 *501:B *21:3 8.02734
2 *21:3 *479:Q 8.55219364
3 *21 *21:3 1.79928
*END

*D_NET *22 0.00485861

*CONN
*P *22 O *C 102.58 43.06 *L 0.1
*I *538:B I *C 84.64 46.46 *L 0.00181 *D MX2X1
*I *523:Q O *C 91.08 40.02 *L 0 *D DFFRX1

*CAP
1 *22 0.00131046
2 *523:Q 0.000125573
3 *538:B 0.000350132
4 *22:3 0.00207918875
5 *22:4 0.000993258

*RES
1 *22:4 *22:3 7.99159
2 *538:B *22:4 8.39857
3 *22:3 *523:Q 5.89867
4 *22 *22:3 12.5044584
*END

*D_NET *23 0.00361681

*CONN
*P *23 O *C 102.58 47.94 *L 0.1
*I *570:B I *C 88.32 46.46 *L 0.00181 *D MX2X1
*I *542:Q O *C 90.16 48.3 *L 0 *D DFFRX1

*CAP
1 *23 0.00123656
2 *542:Q 1.8299e-05
3 *570:B 0.000493638
4 *23:3 0.00129646063
5 *23:4 0.000571839

*RES
1 *570:B *23:4 20.0628052
2 *23:3 *23:4 3.53064
3 *23:4 *542:Q 4.55742
4 *23 *23:3 1.94334
*END

*D_NET *24 0.00341022

*CONN
*P *24 O *C 102.58 52.82 *L 0.1
*I *596:A I *C 91.08 54.28 *L 0.00306 *D NAND2X1
*I *554:Q O *C 89.24 54.74 *L 0 *D DFFRX1

*CAP
1 *24 0.00118428
2 *596:A 0.000122971
3 *554:Q 6.31139e-05
4 *24:3 0.00164198875
5 *24:4 0.000397851

*RES
1 *24:4 *554:Q 4.89858
2 *596:A *24:3 8.07206
3 *24:3 *24:4 3.75361
4 *24 *24:3 8.8685751
*END

*D_NET *25 0.00404716

*CONN
*P *25 O *C 102.58 57.7 *L 0.1
*I *591:B I *C 86.48 63.02 *L 0.00181 *D MX2X1
*I *572:Q O *C 90.16 56.58 *L 0 *D DFFRX1

*CAP
1 *25 0.00103432
2 *572:Q 7.67042e-05
3 *591:B 0.000852272
4 *25:3 0.00013698
5 *25:4 0.00194686656

*RES
1 *591:B *25:4 20.1330185
2 *25:3 *572:Q 5.27349
3 *25:4 *25:3 3.5172
4 *25 *25:4 1.94338
*END

*D_NET *26 0.00338364

*CONN
*P *26 O *C 102.58 28.42 *L 0.1
*I *592:Q O *C 88.32 31.74 *L 0 *D DFFRX1

*CAP
1 *26 0.00135684
2 *592:Q 0.000258679
3 *26:2 0.00143313406
4 *26:3 0.000334977

*RES
1 *26:3 *592:Q 7.23791122
2 *26:2 *26:3 3.51713
3 *26 *26:2 2.2317
*END

*D_NET *27 0.00476158

*CONN
*I *583:A0 I *C 35.42 73.14 *L 0.00295 *D AOI21X1
*I *580:B0 I *C 37.72 70.84 *L 0.00314 *D AOI21X1
*I *563:A0 I *C 39.56 73.6 *L 0.00303 *D AOI211X1
*I *358:Q O *C 40.94 64.86 *L 0 *D DFFRX1

*CAP
1 *358:Q 6.96153e-05
2 *563:A0 0.000692002
3 *580:B0 3.35662e-05
4 *583:A0 0.000387499
5 *27:4 0.00110513
6 *27:5 0.00123168
7 *27:6 0.00124210117

*RES
1 *583:A0 *27:6 11.885
2 *580:B0 *27:5 4.58173
3 *27:5 *27:4 11.8308
4 *27:6 *27:5 1.57604
5 *563:A0 *27:6 14.9909258
6 *27:4 *358:Q 4.96122
*END

*D_NET *28 0.00377309

*CONN
*I *604:A0 I *C 39.1 71.3 *L 0.00295 *D AOI21X1
*I *580:A0 I *C 36.8 71.3 *L 0.00295 *D AOI21X1
*I *356:Q O *C 28.98 64.86 *L 0 *D DFFRX1

*CAP
1 *604:A0 0.000425873
2 *356:Q 0.00136476
3 *580:A0 9.59178e-05
4 *28:3 0.00188654656

*RES
1 *580:A0 *28:3 8.05662
2 *28:3 *356:Q 14.5534277
3 *604:A0 *28:3 8.36529
*END

*D_NET *29 0.0036267

*CONN
*I *636:A0 I *C 38.64 21.62 *L 0.003 *D AOI221X1
*I *588:B0 I *C 39.1 23.92 *L 0.00314 *D AOI21X1
*I *566:B0 I *C 36.8 21.16 *L 0.00309 *D AOI221X1
*I *357:Q O *C 32.2 23.46 *L 0 *D DFFSX1

*CAP
1 *588:B0 0.000477496
2 *636:A0 0.000268931
3 *357:Q 0.000632765
4 *566:B0 0.000239196
5 *29:4 0.0013052225
6 *29:5 0.000703089

*RES
1 *566:B0 *29:5 11.8501
2 *29:5 *29:4 1.84822
3 *29:4 *357:Q 12.7369
4 *636:A0 *29:5 11.6433
5 *588:B0 *29:4 13.5259628
*END

*D_NET *30 0.00523567

*CONN
*I *636:B1 I *C 39.56 21.16 *L 0.00316 *D AOI221X1
*I *594:A0 I *C 33.12 21.62 *L 0.00295 *D AOI21X1
*I *588:A0 I *C 38.18 23.46 *L 0.00295 *D AOI21X1
*I *566:A0 I *C 35.42 21.62 *L 0.003 *D AOI221X1
*I *561:A I *C 28.52 29.44 *L 0.00306 *D NAND2X1
*I *359:Q O *C 31.28 21.62 *L 0 *D DFFSX1

*CAP
1 *636:B1 0.000596171
2 *588:A0 0.000163205
3 *566:A0 0.000124164
4 *594:A0 6.02359e-06
5 *359:Q 5.81732e-05
6 *561:A 0.000606663
7 *30:6 0.000979542734
8 *30:7 0.000571912
9 *30:8 0.000387019
10 *30:9 0.000479406
11 *30:10 0.000874466
12 *636:B1 *636:B0 0.000261425977
13 *636:B1 *195:3 0.000127553936

*RES
1 *30:10 *30:9 3.89789
2 *561:A *30:10 11.1754
3 *30:9 *359:Q 8.03374
4 *594:A0 *30:8 4.51658
5 *30:8 *30:9 3.75366
6 *566:A0 *30:7 8.41563
7 *30:7 *30:8 4.04008
8 *30:6 *30:7 0.380735
9 *588:A0 *30:6 8.80856
10 *636:B1 *30:6 19.0181732
*END

*D_NET *31 0.00373173

*CONN
*I *597:A0 I *C 49.68 29.44 *L 0.00302 *D OAI21X1
*I *590:B0 I *C 48.3 29.44 *L 0.00314 *D AOI21X1
*I *360:Q O *C 59.8 29.9 *L 0 *D DFFSX1

*CAP
1 *360:Q 0.00137288
2 *597:A0 0.00018848
3 *590:B0 0.000304529
4 *31:3 0.00186586375

*RES
1 *590:B0 *31:3 8.67839
2 *597:A0 *31:3 8.51399
3 *31:3 *360:Q 9.63699818
*END

*D_NET *32 0.00766873

*CONN
*I *590:A0 I *C 47.38 29.9 *L 0.00295 *D AOI21X1
*I *589:A I *C 47.84 37.72 *L 0.00306 *D NAND2X1
*I *560:A I *C 53.36 37.72 *L 0.00306 *D NAND2X1
*I *363:Q O *C 60.72 31.74 *L 0 *D DFFSX1

*CAP
1 *560:A 0.000131076
2 *363:Q 0.00207854
3 *589:A 8.71934e-05
4 *590:A0 0.000598192
5 *32:4 0.00249856703
6 *32:5 0.000431354
7 *32:6 0.000653398
8 *590:A0 *567:A1 0.000193297871
9 *32:5 *589:B 0.00025522709
10 *32:4 *597:A1 0.000364959258
11 *560:A *338:13 0.000376939766

*RES
1 *590:A0 *32:6 12.211
2 *32:6 *32:5 3.53746
3 *589:A *32:5 8.74604
4 *32:5 *32:4 0.779483
5 *32:4 *363:Q 16.8985138
6 *560:A *32:4 8.74604
*END

*D_NET *33 0.00459743

*CONN
*I *585:B0 I *C 46 70.84 *L 0.00314 *D AOI21X1
*I *555:A0 I *C 46.46 73.6 *L 0.00303 *D AOI211X1
*I *361:Q O *C 50.14 64.86 *L 0 *D DFFSX1

*CAP
1 *361:Q 0.00168376
2 *555:A0 0.000444414
3 *585:B0 0.00017054
4 *33:3 0.00229871266

*RES
1 *585:B0 *33:3 8.17453
2 *555:A0 *33:3 16.9239044
3 *33:3 *361:Q 16.5892
*END

*D_NET *34 0.00547779

*CONN
*I *603:A0 I *C 50.14 71.3 *L 0.00295 *D AOI21X1
*I *602:A I *C 48.3 70.84 *L 0.00306 *D NAND2X1
*I *585:A0 I *C 45.08 71.3 *L 0.00295 *D AOI21X1
*I *562:A I *C 56.58 62.56 *L 0.00306 *D NAND2X1
*I *362:Q O *C 59.34 64.86 *L 0 *D DFFSX1

*CAP
1 *362:Q 9.61914e-05
2 *562:A 0.000360128
3 *603:A0 7.65285e-05
4 *602:A 9.79926e-05
5 *585:A0 0.000381592
6 *34:5 0.00140523906
7 *34:6 0.00111639
8 *34:7 0.000570544
9 *34:6 *1:73 0.000190734863
10 *34:6 *603:B0 0.000209808359
11 *34:5 *2:80 0.000186085703
12 *34:5 *192:21 0.000248312949
13 *34:5 *272:4 0.000538229961

*RES
1 *585:A0 *34:7 8.50941
2 *602:A *34:7 8.08212
3 *34:7 *34:6 0.236604
4 *603:A0 *34:6 8.05664
5 *34:6 *34:5 16.5309906
6 *562:A *34:5 13.6191
7 *34:5 *362:Q 11.6612
*END

*D_NET *35 0.00353336

*CONN
*I *598:B I *C 70.38 52.9 *L 0.00189 *D MX4X1
*I *391:B I *C 70.84 46.46 *L 0.00181 *D MX2X1
*I *381:Q O *C 67.16 46.46 *L 0 *D DFFRX1

*CAP
1 *381:Q 0.000575065
2 *391:B 0.00013549
3 *598:B 0.00105613
4 *35:3 0.00176668172

*RES
1 *598:B *35:3 20.9831009
2 *391:B *35:3 8.10335
3 *35:3 *381:Q 8.62812
*END

*D_NET *36 0.00437403

*CONN
*I *598:D I *C 71.76 53.82 *L 0.00191 *D MX4X1
*I *388:B I *C 80.04 48.3 *L 0.00181 *D MX2X1
*I *372:Q O *C 76.36 48.3 *L 0 *D DFFRX1

*CAP
1 *388:B 0.000335352
2 *372:Q 0.000192221
3 *598:D 0.00165944
4 *36:3 0.00218701359

*RES
1 *598:D *36:3 21.495224
2 *36:3 *372:Q 8.16698
3 *388:B *36:3 8.45528
*END

*D_NET *37 0.00243819

*CONN
*I *598:A I *C 69 53.82 *L 0.00199 *D MX4X1
*I *392:B I *C 67.16 63.02 *L 0.00181 *D MX2X1
*I *379:Q O *C 68.08 56.58 *L 0 *D DFFRX1

*CAP
1 *598:A 0.000418013
2 *379:Q 3.2723e-05
3 *392:B 0.000469143
4 *37:3 0.000749944
5 *37:4 0.000768363438

*RES
1 *37:4 *37:3 7.8186
2 *392:B *37:4 9.02355
3 *37:3 *379:Q 4.58179
4 *598:A *37:3 13.6363506
*END

*D_NET *38 0.00394309

*CONN
*I *598:C I *C 70.38 54.28 *L 0.00194 *D MX4X1
*I *383:B I *C 71.76 56.58 *L 0.00181 *D MX2X1
*I *370:Q O *C 78.2 63.02 *L 0 *D DFFRX1

*CAP
1 *383:B 0.000240039
2 *370:Q 0.00132652
3 *598:C 0.000405018
4 *38:3 0.00197154281

*RES
1 *598:C *38:3 13.4577
2 *38:3 *370:Q 18.3333168
3 *383:B *38:3 11.646
*END

*D_NET *39 0.00362086

*CONN
*I *539:D I *C 75.9 40.94 *L 0.00191 *D MX4X1
*I *395:A I *C 69.46 40.02 *L 0.00178 *D MX2X1
*I *382:Q O *C 67.16 40.02 *L 0 *D DFFRX1

*CAP
1 *539:D 0.00107253
2 *382:Q 0.000500628
3 *395:A 0.000237275
4 *39:3 0.00181043141

*RES
1 *395:A *39:3 9.41574
2 *39:3 *382:Q 9.72437859
3 *539:D *39:3 9.55151
*END

*D_NET *40 0.00348592

*CONN
*I *539:B I *C 74.52 41.86 *L 0.00189 *D MX4X1
*I *386:A I *C 80.5 40.02 *L 0.00178 *D MX2X1
*I *375:Q O *C 80.04 46.46 *L 0 *D DFFRX1

*CAP
1 *386:A 0.000377369
2 *375:Q 0.000447502
3 *539:B 0.000918089
4 *40:3 0.00174295906

*RES
1 *539:B *40:3 12.6836
2 *40:3 *375:Q 8.94323
3 *386:A *40:3 13.1853819
*END

*D_NET *41 0.00545496

*CONN
*I *539:C I *C 74.52 40.48 *L 0.00194 *D MX4X1
*I *396:A I *C 64.86 54.74 *L 0.00178 *D MX2X1
*I *380:Q O *C 67.16 48.3 *L 0 *D DFFRX1

*CAP
1 *539:C 0.00139104
2 *380:Q 2.40841e-05
3 *396:A 0.000961912
4 *41:3 0.00237703328
5 *539:C *321:5 0.000700891016

*RES
1 *396:A *41:3 24.0174522
2 *41:3 *380:Q 4.5817
3 *539:C *41:3 19.9224
*END

*D_NET *42 0.0049274

*CONN
*I *539:A I *C 73.14 40.94 *L 0.00199 *D MX4X1
*I *387:A I *C 76.36 54.74 *L 0.00178 *D MX2X1
*I *371:Q O *C 80.96 56.58 *L 0 *D DFFRX1

*CAP
1 *371:Q 0.000114689
2 *387:A 0.00014425
3 *539:A 0.0011912
4 *42:3 0.000645112
5 *42:4 0.00115783
6 *42:5 0.00167435406

*RES
1 *539:A *42:5 17.0593262
2 *42:5 *42:4 3.96991
3 *387:A *42:4 8.25504
4 *42:4 *42:3 4.18622
5 *42:3 *371:Q 5.45208
*END

*D_NET *43 0.00418198

*CONN
*I *502:D I *C 72.22 24.38 *L 0.00191 *D MX4X1
*I *474:A I *C 64.4 15.18 *L 0.00178 *D MX2X1
*I *450:Q O *C 69 21.62 *L 0 *D DFFRX1

*CAP
1 *502:D 0.000336711
2 *450:Q 7.62273e-05
3 *474:A 0.00105233
4 *43:3 0.000877548
5 *43:4 0.000161109
6 *43:5 0.00167804953

*RES
1 *474:A *43:5 19.8529968
2 *43:4 *450:Q 5.28254
3 *43:5 *43:4 3.51705
4 *43:3 *43:5 3.96993
5 *502:D *43:3 7.7469
*END

*D_NET *44 0.0029273

*CONN
*I *502:B I *C 70.84 25.3 *L 0.00189 *D MX4X1
*I *463:A I *C 65.78 23.46 *L 0.00178 *D MX2X1
*I *437:Q O *C 63.48 23.46 *L 0 *D DFFRX1

*CAP
1 *502:B 0.000887571
2 *437:Q 0.000424813
3 *463:A 0.000151267
4 *44:3 0.00146365172

*RES
1 *463:A *44:3 8.40676
2 *44:3 *437:Q 8.71539
3 *502:B *44:3 9.55855846
*END

*D_NET *45 0.0040977

*CONN
*I *502:C I *C 70.84 23.92 *L 0.00194 *D MX4X1
*I *472:A I *C 80.5 23.46 *L 0.00178 *D MX2X1
*I *447:Q O *C 91.08 23.46 *L 0 *D DFFRX1

*CAP
1 *472:A 6.41213e-05
2 *447:Q 0.000963321
3 *502:C 0.00102138
4 *45:3 0.00204885

*RES
1 *502:C *45:3 9.59171
2 *45:3 *447:Q 9.63699818
3 *472:A *45:3 8.03108
*END

*D_NET *46 0.00568986

*CONN
*I *502:A I *C 69.46 24.38 *L 0.00199 *D MX4X1
*I *465:A I *C 74.98 15.18 *L 0.00178 *D MX2X1
*I *436:Q O *C 78.66 21.62 *L 0 *D DFFRX1

*CAP
1 *436:Q 0.00027537
2 *465:A 0.000453107
3 *502:A 0.00163889
4 *46:3 0.000502763
5 *46:4 0.00196391344
6 *502:A *502:S1 0.000163316729
7 *46:4 *2:66 0.000346243
8 *436:Q *436:RN 0.000346243797

*RES
1 *502:A *46:4 16.6113377
2 *465:A *46:3 10.104
3 *46:3 *46:4 3.51713
4 *46:4 *436:Q 8.55863
*END

*D_NET *47 0.00207829

*CONN
*I *573:C I *C 71.76 32.2 *L 0.00194 *D MX4X1
*I *475:B I *C 68.08 31.74 *L 0.00181 *D MX2X1
*I *451:Q O *C 69 29.9 *L 0 *D DFFRX1

*CAP
1 *573:C 0.000627453
2 *475:B 3.66599e-05
3 *451:Q 0.000375035
4 *47:3 0.00103914734

*RES
1 *47:3 *451:Q 13.2536888
2 *475:B *47:3 4.58043
3 *573:C *47:3 12.0834
*END

*D_NET *48 0.00296962

*CONN
*I *573:A I *C 70.38 32.66 *L 0.00199 *D MX4X1
*I *464:B I *C 64.4 31.74 *L 0.00181 *D MX2X1
*I *438:Q O *C 69 38.18 *L 0 *D DFFRX1

*CAP
1 *573:A 0.000412889
2 *438:Q 0.000124386
3 *464:B 0.000537565
4 *48:3 0.000534348
5 *48:4 0.00136041641

*RES
1 *464:B *48:4 12.3537779
2 *48:4 *48:3 8.0885
3 *48:3 *438:Q 8.1198
4 *573:A *48:4 11.8443
*END

*D_NET *49 0.00335085

*CONN
*I *573:D I *C 73.14 32.66 *L 0.00191 *D MX4X1
*I *473:B I *C 79.12 31.74 *L 0.00181 *D MX2X1
*I *448:Q O *C 78.2 38.18 *L 0 *D DFFRX1

*CAP
1 *473:B 0.000275799
2 *448:Q 0.000443764
3 *573:D 0.00095589
4 *49:3 0.00167542703

*RES
1 *573:D *49:3 12.5668049
2 *49:3 *448:Q 9.72002
3 *473:B *49:3 11.9035
*END

*D_NET *50 0.00422347

*CONN
*I *573:B I *C 71.76 33.58 *L 0.00189 *D MX4X1
*I *462:B I *C 78.2 23.46 *L 0.00181 *D MX2X1
*I *439:Q O *C 78.2 29.9 *L 0 *D DFFRX1

*CAP
1 *439:Q 1.51448e-05
2 *462:B 0.000508414
3 *573:B 0.00158817
4 *50:3 0.00211173297

*RES
1 *573:B *50:3 22.4351883
2 *462:B *50:3 9.79143
3 *50:3 *439:Q 4.55989
*END

*D_NET *51 0.00353038

*CONN
*I *622:B0 I *C 83.72 62.56 *L 0.00308 *D AOI22X1
*I *468:A I *C 79.12 71.3 *L 0.00178 *D MX2X1
*I *449:Q O *C 89.7 71.3 *L 0 *D DFFRX1

*CAP
1 *449:Q 0.000667452
2 *622:B0 0.000546944
3 *468:A 0.000550796
4 *51:3 0.00176519156

*RES
1 *468:A *51:3 13.2268667
2 *622:B0 *51:3 10.8272
3 *51:3 *449:Q 13.218
*END

*D_NET *52 0.0036484

*CONN
*I *622:A0 I *C 81.88 63.02 *L 0.00299 *D AOI22X1
*I *457:A I *C 80.96 79.58 *L 0.00178 *D MX2X1
*I *440:Q O *C 86.02 73.14 *L 0 *D DFFRX1

*CAP
1 *440:Q 0.000418418
2 *622:A0 0.000757699
3 *457:A 0.000470342
4 *52:3 0.000821530781
5 *52:4 0.000596163
6 *52:5 0.000584241

*RES
1 *52:5 *52:4 3.60953
2 *457:A *52:5 10.1932
3 *622:A0 *52:3 13.1397247
4 *52:3 *52:4 3.51711
5 *52:4 *440:Q 8.65623
*END

*D_NET *53 0.00232756

*CONN
*I *634:B I *C 31.74 73.6 *L 0.00312 *D NOR2X1
*I *631:B I *C 29.9 73.6 *L 0.00317 *D NAND2X1
*I *630:A I *C 29.9 70.84 *L 0.00573 *D NAND2X2
*I *498:Q O *C 27.6 79.58 *L 0 *D DFFRX1

*CAP
1 *634:B 0.000348153
2 *631:B 1.91188e-06
3 *498:Q 0.000594731
4 *630:A 0.000218992
5 *53:4 0.0005966425
6 *53:5 0.000567136

*RES
1 *630:A *53:5 6.70225
2 *53:5 *53:4 0.499971
3 *53:4 *498:Q 16.9596672
4 *631:B *53:4 4.50388
5 *634:B *53:5 11.7747
*END

*D_NET *54 0.00209951

*CONN
*I *634:A I *C 31.28 74.06 *L 0.00302 *D NOR2X1
*I *631:A I *C 29.44 73.6 *L 0.00306 *D NAND2X1
*I *626:A I *C 27.14 73.6 *L 0.00573 *D NAND2X2
*I *488:Q O *C 28.06 71.3 *L 0 *D DFFRX1

*CAP
1 *634:A 0.000343506
2 *631:A 0.00012803
3 *488:Q 0.000249624
4 *626:A 0.000166893
5 *54:4 0.000633239766
6 *54:5 0.000578221

*RES
1 *626:A *54:5 11.7728
2 *54:5 *488:Q 12.8977299
3 *54:4 *54:5 3.75364
4 *631:A *54:4 8.37105
5 *634:A *54:4 9.01833
*END

*D_NET *55 0.00210261

*CONN
*I *635:B I *C 30.36 54.28 *L 0.00317 *D NAND2X1
*I *632:B I *C 30.82 57.04 *L 0.00312 *D NOR2X1
*I *625:A I *C 28.06 54.28 *L 0.00306 *D NAND2X1
*I *499:Q O *C 28.06 56.58 *L 0 *D DFFRX1

*CAP
1 *632:B 0.00013256
2 *635:B 0.000273886
3 *499:Q 5.24093e-06
4 *625:A 0.00019324
5 *55:4 0.000578938
6 *55:5 0.000329612
7 *55:6 0.000589132305

*RES
1 *625:A *55:6 6.23782
2 *55:6 *499:Q 4.51903
3 *635:B *55:5 7.3272
4 *55:5 *55:4 3.51719
5 *55:4 *55:6 11.5673542
6 *632:B *55:4 8.40052
*END

*D_NET *56 0.00355768

*CONN
*I *635:A I *C 29.9 54.28 *L 0.00306 *D NAND2X1
*I *632:A I *C 30.36 57.5 *L 0.00302 *D NOR2X1
*I *629:A I *C 26.22 54.28 *L 0.00306 *D NAND2X1
*I *500:Q O *C 28.06 63.02 *L 0 *D DFFRX1

*CAP
1 *632:A 0.000164867
2 *500:Q 0.000681106
3 *635:A 0.000100368
4 *629:A 0.000660414
5 *56:4 0.00101804734
6 *56:5 0.000932872

*RES
1 *629:A *56:5 12.7078
2 *635:A *56:5 5.14875
3 *56:5 *56:4 1.84821
4 *56:4 *500:Q 16.3792381
5 *632:A *56:4 11.5994
*END

*D_NET *57 0.00154567

*CONN
*I *617:A I *C 66.7 74.06 *L 0.00302 *D NOR2X1
*I *557:Q O *C 64.4 71.3 *L 0 *D DFFRX1

*CAP
1 *557:Q 0.000772833828
2 *617:A 0.000772833828

*RES
1 *617:A *557:Q 18.7007
*END

*D_NET *58 0.0040406

*CONN
*I *633:B I *C 70.38 73.6 *L 0.00312 *D NOR2X1
*I *623:B I *C 74.06 70.84 *L 0.00312 *D NOR2X1
*I *618:C I *C 72.22 70.38 *L 0.00316 *D NAND3X1
*I *601:A1 I *C 73.14 74.06 *L 0.00305 *D AOI21X1
*I *586:Q O *C 76.82 79.58 *L 0 *D DFFRX1

*CAP
1 *586:Q 0.000443096
2 *623:B 0.000220656
3 *601:A1 8.58729e-06
4 *618:C 0.000287239
5 *633:B 0.000418662
6 *58:5 0.000906228984
7 *58:6 0.000642056
8 *58:7 0.000674068
9 *58:8 0.000439998

*RES
1 *633:B *58:8 12.1974945
2 *618:C *58:7 11.8677
3 *58:7 *58:6 1.84816
4 *58:6 *58:5 7.55922
5 *58:8 *58:6 0.138473
6 *601:A1 *58:8 4.52176
7 *623:B *58:7 11.6918
8 *58:5 *586:Q 9.64859
*END

*D_NET *59 0.00619113

*CONN
*I *633:A I *C 69.92 74.06 *L 0.00302 *D NOR2X1
*I *618:A I *C 71.3 70.84 *L 0.003 *D NAND3X1
*I *610:A I *C 74.52 65.32 *L 0.00306 *D NAND2X1
*I *606:A I *C 75.44 70.38 *L 0.00302 *D NOR2X1
*I *601:A0 I *C 72.68 73.14 *L 0.00295 *D AOI21X1
*I *599:A I *C 71.3 65.78 *L 0.00302 *D NOR2X1
*I *543:Q O *C 69 64.86 *L 0 *D DFFRX1

*CAP
1 *606:A 0.000183398
2 *610:A 3.15341e-05
3 *601:A0 0.000572444
4 *618:A 0.000158852
5 *599:A 0.000104194
6 *543:Q 0.000328187
7 *633:A 0.000509495
8 *59:7 0.000710844
9 *59:8 0.0011225343
10 *59:9 0.000475461
11 *59:10 0.000742669
12 *59:11 0.00102418
13 *606:A *245:10 0.000227332109

*RES
1 *633:A *59:11 14.0413046
2 *59:10 *543:Q 12.0196
3 *59:11 *59:10 4.57152
4 *59:9 *59:10 3.53754
5 *599:A *59:9 8.04907
6 *618:A *59:11 11.6196
7 *601:A0 *59:8 13.6612
8 *59:7 *59:9 3.9699
9 *610:A *59:7 4.57281
10 *59:8 *59:7 4.02668
11 *606:A *59:8 11.6535
*END

*D_NET *101 0.00736511

*CONN
*I *622:B1 I *C 82.8 62.56 *L 0.00319 *D AOI22X1
*I *598:S0 I *C 70.84 54.28 *L 0.00642 *D MX4X1
*I *591:A I *C 85.1 63.02 *L 0.00178 *D MX2X1
*I *389:A I *C 76.82 64.86 *L 0.00178 *D MX2X1
*I *376:Q O *C 88.32 64.86 *L 0 *D DFFRX1

*CAP
1 *376:Q 0.000162651
2 *591:A 8.75741e-05
3 *622:B1 7.13454e-05
4 *389:A 0.000343319
5 *598:S0 0.00119585
6 *101:5 0.000546708
7 *101:6 0.000631704
8 *101:7 0.000680208
9 *101:8 0.00198793406
10 *598:S0 *317:12 0.000874638594
11 *389:A *243:8 0.000567674648
12 *591:A *2:60 0.000215530391

*RES
1 *598:S0 *101:8 23.306488
2 *389:A *101:8 16.9542
3 *101:8 *101:7 0.812967
4 *622:B1 *101:7 8.01729
5 *101:7 *101:6 0.308686
6 *101:6 *101:5 3.96988
7 *591:A *101:6 8.18373
8 *101:5 *376:Q 6.30921
*END

*D_NET *102 0.00175691

*CONN
*I *622:A1 I *C 82.34 62.56 *L 0.00311 *D AOI22X1
*I *376:QN O *C 89.24 64.86 *L 0 *D DFFRX1

*CAP
1 *376:QN 0.000637108
2 *622:A1 0.000241345
3 *102:2 0.000878453281

*RES
1 *622:A1 *102:2 6.4701
2 *102:2 *376:QN 12.5980377
*END

*D_NET *103 0.00525755

*CONN
*I *597:A1 I *C 50.14 29.44 *L 0.00314 *D OAI21X1
*I *363:QN O *C 61.64 31.74 *L 0 *D DFFSX1

*CAP
1 *363:QN 0.00244629391
2 *597:A1 0.00244629391
3 *597:A1 *32:4 0.000364959258

*RES
1 *597:A1 *363:QN 24.3694
*END

*D_NET *104 0.00488567

*CONN
*I *630:B I *C 30.36 70.38 *L 0.00595 *D NAND2X2
*I *512:A0 I *C 24.84 73.6 *L 0.00302 *D OAI21X1
*I *488:QN O *C 28.98 71.3 *L 0 *D DFFRX1

*CAP
1 *630:B 9.38245e-05
2 *488:QN 6.42072e-05
3 *512:A0 0.00207383
4 *104:3 0.000275194
5 *104:4 0.0023786425

*RES
1 *512:A0 *104:4 16.6988373
2 *104:3 *488:QN 4.97887
3 *630:B *104:4 8.04391
4 *104:4 *104:3 3.68166
*END

*D_NET *105 0.00256217

*CONN
*I *629:B I *C 26.68 54.28 *L 0.00317 *D NAND2X1
*I *511:A0 I *C 23.92 54.28 *L 0.00302 *D OAI21X1
*I *499:QN O *C 28.98 56.58 *L 0 *D DFFRX1

*CAP
1 *499:QN 0.000767829
2 *629:B 0.000140003
3 *511:A0 0.000373251
4 *105:3 0.00128108266

*RES
1 *511:A0 *105:3 8.50179
2 *629:B *105:3 8.12116
3 *105:3 *499:QN 16.7752495
*END

*D_NET *106 0.00179076

*CONN
*I *628:Y O *C 40.94 48.3 *L 0 *D CLKINVX1
*I *429:A0 I *C 40.02 46 *L 0.00299 *D OAI211X1

*CAP
1 *628:Y 0.000895380938
2 *429:A0 0.000895380938

*RES
1 *429:A0 *628:Y 25.4691
*END

*D_NET *107 0.00104165

*CONN
*I *627:Y O *C 38.18 73.14 *L 0 *D INVX2
*I *583:A1 I *C 35.88 74.06 *L 0.00305 *D AOI21X1

*CAP
1 *627:Y 9.35237e-05
2 *583:A1 0.00042731
3 *107:2 0.000520825391

*RES
1 *583:A1 *107:2 11.8646622
2 *107:2 *627:Y 5.19332
*END

*D_NET *108 0.00227237

*CONN
*I *626:B I *C 27.6 74.06 *L 0.00595 *D NAND2X2
*I *514:A0 I *C 22.54 73.6 *L 0.00302 *D OAI21X1
*I *498:QN O *C 28.52 79.58 *L 0 *D DFFRX1

*CAP
1 *498:QN 0.000329136
2 *626:B 8.6782e-05
3 *514:A0 0.000625491
4 *108:3 0.000423911
5 *108:4 0.000807046875

*RES
1 *514:A0 *108:4 9.04067
2 *108:4 *108:3 3.6096
3 *626:B *108:4 8.03894
4 *108:3 *498:QN 9.10401344
*END

*D_NET *109 0.00232697

*CONN
*I *625:B I *C 28.52 54.28 *L 0.00317 *D NAND2X1
*I *505:A0 I *C 29.9 62.56 *L 0.00302 *D OAI21X1
*I *500:QN O *C 28.98 63.02 *L 0 *D DFFRX1

*CAP
1 *505:A0 0.000248852
2 *500:QN 3.72471e-05
3 *625:B 0.000877383
4 *109:3 0.00116348266

*RES
1 *625:B *109:3 18.9042091
2 *109:3 *500:QN 4.66634
3 *505:A0 *109:3 11.6268
*END

*D_NET *110 0.00113511

*CONN
*I *621:Y O *C 37.26 23.46 *L 0 *D CLKINVX1
*I *566:B1 I *C 36.34 21.16 *L 0.00316 *D AOI221X1

*CAP
1 *621:Y 0.00056755543
2 *566:B1 0.00056755543

*RES
1 *566:B1 *621:Y 24.9805
*END

*D_NET *111 0.00150168

*CONN
*I *636:A1 I *C 39.1 21.16 *L 0.0031 *D AOI221X1
*I *620:Y O *C 39.1 15.18 *L 0 *D CLKINVX1

*CAP
1 *620:Y 0.000750839688
2 *636:A1 0.000750839688

*RES
1 *636:A1 *620:Y 28.2738
*END

*D_NET *112 0.000750065

*CONN
*I *619:Y O *C 46.46 46.46 *L 0 *D CLKINVX1
*I *428:A0 I *C 47.38 46 *L 0.00299 *D OAI211X1

*CAP
1 *619:Y 0.000375032422
2 *428:A0 0.000375032422

*RES
1 *428:A0 *619:Y 16.9775
*END

*D_NET *113 0.0038358

*CONN
*I *623:A I *C 73.6 70.38 *L 0.00302 *D NOR2X1
*I *618:B I *C 71.76 70.38 *L 0.00309 *D NAND3X1
*I *611:B I *C 64.4 72.68 *L 0.00183 *D AND3X2
*I *557:QN O *C 65.32 71.3 *L 0 *D DFFRX1

*CAP
1 *623:A 0.000287424
2 *618:B 0.000123857
3 *557:QN 0.000104495
4 *611:B 0.000628593
5 *113:4 0.00110226
6 *113:5 0.000187038
7 *113:6 0.00140213969

*RES
1 *611:B *113:6 17.6916122
2 *113:5 *557:QN 5.5235
3 *113:6 *113:5 3.51721
4 *113:4 *113:6 0.957252
5 *618:B *113:4 8.21925
6 *623:A *113:4 8.45599
*END

*D_NET *114 0.00239968

*CONN
*I *633:Y O *C 70.84 73.14 *L 0 *D NOR2X1
*I *617:B I *C 67.16 73.6 *L 0.00312 *D NOR2X1
*I *611:C I *C 64.4 74.52 *L 0.00191 *D AND3X2

*CAP
1 *617:B 8.27357e-05
2 *633:Y 0.000567561
3 *611:C 0.000549563
4 *114:3 0.00119984148

*RES
1 *611:C *114:3 9.02855396
2 *114:3 *633:Y 8.69062
3 *617:B *114:3 8.02094
*END

*D_NET *115 0.000722766

*CONN
*I *616:Y O *C 49.68 48.3 *L 0 *D CLKINVX1
*I *426:A0 I *C 50.14 46 *L 0.00299 *D OAI211X1

*CAP
1 *616:Y 0.000142811
2 *426:A0 0.000218572
3 *115:2 0.000361382969

*RES
1 *426:A0 *115:2 6.55039
2 *115:2 *616:Y 11.6120577
*END

*D_NET *116 0.00226891

*CONN
*I *623:Y O *C 74.52 71.3 *L 0 *D NOR2X1
*I *615:A I *C 77.28 70.84 *L 0.00303 *D CLKINVX1
*I *610:B I *C 74.98 65.32 *L 0.00317 *D NAND2X1

*CAP
1 *615:A 0.000412406
2 *623:Y 0.000124875
3 *610:B 0.000524464
4 *116:3 0.000609993945
5 *116:4 0.000597177

*RES
1 *610:B *116:4 9.99677181
2 *116:4 *116:3 3.51708
3 *116:3 *623:Y 8.19499
4 *615:A *116:3 8.89392
*END

*D_NET *117 0.000958681

*CONN
*I *615:Y O *C 77.74 71.3 *L 0 *D CLKINVX1
*I *606:B I *C 75.9 70.84 *L 0.00312 *D NOR2X1

*CAP
1 *615:Y 7.08679e-05
2 *606:B 0.000408473
3 *117:2 0.000479340547

*RES
1 *606:B *117:2 11.8486881
2 *117:2 *615:Y 4.97896
*END

*D_NET *118 0.00238001

*CONN
*I *617:Y O *C 67.62 73.14 *L 0 *D NOR2X1
*I *612:A I *C 68.54 73.6 *L 0.00303 *D CLKINVX1
*I *595:A I *C 62.1 74.06 *L 0.00192 *D OR2X2

*CAP
1 *612:A 0.000212542
2 *617:Y 0.00011075
3 *595:A 0.000809557
4 *118:3 0.000167913
5 *118:4 0.00107926133

*RES
1 *595:A *118:4 16.7022934
2 *118:3 *617:Y 5.73785
3 *118:4 *118:3 3.51728
4 *612:A *118:4 8.93681
*END

*D_NET *119 0.00195861

*CONN
*I *607:Y O *C 90.62 31.74 *L 0 *D CLKINVX1
*I *592:D I *C 81.42 31.28 *L 0.00181 *D DFFRX1

*CAP
1 *607:Y 0.000979304297
2 *592:D 0.000979304297

*RES
1 *592:D *607:Y 17.5285
*END

*D_NET *120 0.00414598

*CONN
*I *604:A1 I *C 39.56 70.38 *L 0.00305 *D AOI21X1
*I *365:B0 I *C 35.42 70.38 *L 0.00309 *D OAI22X1
*I *358:QN O *C 41.86 64.86 *L 0 *D DFFRX1

*CAP
1 *604:A1 0.00020586
2 *358:QN 0.00111179
3 *365:B0 0.000755304
4 *120:3 0.00207299

*RES
1 *365:B0 *120:3 9.52078
2 *120:3 *358:QN 21.1273422
3 *604:A1 *120:3 9.01658
*END

*D_NET *121 0.00340986

*CONN
*I *612:Y O *C 69 73.14 *L 0 *D CLKINVX1
*I *601:B0 I *C 73.6 73.6 *L 0.00314 *D AOI21X1
*I *599:B I *C 71.76 65.32 *L 0.00312 *D NOR2X1

*CAP
1 *601:B0 0.000375041
2 *599:B 0.000940333
3 *612:Y 0.000389583
4 *121:3 0.00170493125

*RES
1 *121:3 *612:Y 8.36782
2 *599:B *121:3 21.8919525
3 *601:B0 *121:3 8.67982
*END

*D_NET *122 0.00226367

*CONN
*I *601:Y O *C 74.06 73.14 *L 0 *D AOI21X1
*I *586:D I *C 69.92 80.04 *L 0.00181 *D DFFRX1

*CAP
1 *601:Y 0.000443096
2 *586:D 0.000688737
3 *122:2 0.00113183258

*RES
1 *586:D *122:2 12.2441053
2 *122:2 *601:Y 10.095
*END

*D_NET *123 0.00050962

*CONN
*I *600:Y O *C 66.7 71.3 *L 0 *D CLKINVX1
*I *578:A I *C 67.62 70.84 *L 0.00306 *D NAND2X1

*CAP
1 *600:Y 0.000254809863
2 *578:A 0.000254809863

*RES
1 *578:A *600:Y 16.2313
*END

*D_NET *124 0.00260949

*CONN
*I *596:Y O *C 91.54 52.44 *L 0 *D NAND2X1
*I *584:B0 I *C 80.5 54.28 *L 0.00315 *D OAI21X1

*CAP
1 *596:Y 7.7785e-05
2 *584:B0 0.00122696
3 *124:2 0.0013047457

*RES
1 *584:B0 *124:2 13.7447119
2 *124:2 *596:Y 5.15741
*END

*D_NET *125 0.00244844

*CONN
*I *594:A1 I *C 33.58 20.7 *L 0.00305 *D AOI21X1
*I *364:B0 I *C 30.82 32.66 *L 0.00307 *D OAI221X1
*I *357:QN O *C 33.12 23.46 *L 0 *D DFFSX1

*CAP
1 *594:A1 0.000322643
2 *357:QN 2.61032e-05
3 *364:B0 0.000405962
4 *125:3 0.000818257
5 *125:4 0.000875473047

*RES
1 *125:4 *125:3 9.82953
2 *364:B0 *125:4 9.69334
3 *125:3 *357:QN 4.58164
4 *594:A1 *125:3 13.9455795
*END

*D_NET *126 0.00253129

*CONN
*I *593:A I *C 32.2 70.38 *L 0.00302 *D NOR2X1
*I *366:B0 I *C 32.2 65.78 *L 0.00309 *D OAI22X1
*I *356:QN O *C 29.9 64.86 *L 0 *D DFFRX1

*CAP
1 *593:A 0.000699518
2 *366:B0 0.000231692
3 *356:QN 0.000334435
4 *126:3 0.001265645

*RES
1 *126:3 *356:QN 8.42905
2 *366:B0 *126:3 9.03424
3 *593:A *126:3 20.2146759
*END

*D_NET *127 0.00352693

*CONN
*I *591:Y O *C 86.94 63.02 *L 0 *D MX2X1
*I *572:D I *C 83.26 56.12 *L 0.00181 *D DFFRX1

*CAP
1 *591:Y 0.00176346297
2 *572:D 0.00176346297

*RES
1 *572:D *591:Y 24.8687
*END

*D_NET *128 0.0171536

*CONN
*I *613:Y O *C 35.88 29.9 *L 0 *D CLKAND2X2
*I *609:A I *C 34.5 37.72 *L 0.00583 *D INVX2
*I *604:B0 I *C 40.02 70.84 *L 0.00314 *D AOI21X1
*I *603:B0 I *C 51.06 70.84 *L 0.00314 *D AOI21X1
*I *602:B I *C 48.76 70.84 *L 0.00317 *D NAND2X1
*I *597:B0 I *C 50.6 29.44 *L 0.00315 *D OAI21X1
*I *590:A1 I *C 47.84 28.98 *L 0.00305 *D AOI21X1
*I *588:A1 I *C 38.64 24.38 *L 0.00305 *D AOI21X1

*CAP
1 *603:B0 0.000266443
2 *597:B0 0.000324348
3 *602:B 0.000148184
4 *590:A1 6.15812e-05
5 *604:B0 0.000147719
6 *613:Y 0.000372826
7 *588:A1 0.000533394
8 *609:A 0.000296706
9 *128:8 0.00100795
10 *128:9 0.00151671
11 *128:10 0.000807741
12 *128:11 0.00255932
13 *128:12 0.0027698875
14 *128:13 0.000869999
15 *128:14 0.00173222
16 *128:15 0.00100309
17 *128:12 *338:20 0.000437259688
18 *128:12 *585:A1 0.00133109094
19 *128:11 *456:A 0.000135242939
20 *597:B0 *234:10 0.000622034063
21 *603:B0 *34:6 0.000209808359

*RES
1 *609:A *128:15 12.5832
2 *588:A1 *128:14 19.1713
3 *128:14 *128:13 3.7315
4 *128:13 *613:Y 11.9751
5 *128:15 *128:13 6.20534
6 *128:12 *128:15 8.43042
7 *128:11 *128:12 27.4463882
8 *128:10 *128:11 3.53759
9 *604:B0 *128:10 8.63018
10 *590:A1 *128:9 8.02334
11 *128:9 *128:14 1.38957
12 *128:8 *128:10 1.31754
13 *602:B *128:8 8.63018
14 *597:B0 *128:9 8.53763
15 *603:B0 *128:8 8.93884
*END

*D_NET *129 0.00146103

*CONN
*I *602:Y O *C 48.76 69 *L 0 *D NAND2X1
*I *587:A I *C 48.76 73.6 *L 0.00303 *D CLKINVX1
*I *582:B0 I *C 51.06 73.6 *L 0.00315 *D OAI21X1

*CAP
1 *582:B0 0.000359712
2 *587:A 1.54942e-06
3 *602:Y 0.000369253
4 *129:3 0.000730514531

*RES
1 *129:3 *602:Y 8.34495
2 *587:A *129:3 4.50382
3 *582:B0 *129:3 11.8467808
*END

*D_NET *130 0.000702143

*CONN
*I *587:Y O *C 49.22 73.14 *L 0 *D CLKINVX1
*I *555:C0 I *C 47.38 73.6 *L 0.00313 *D AOI211X1

*CAP
1 *587:Y 0.000351071367
2 *555:C0 0.000351071367

*RES
1 *555:C0 *587:Y 16.4233
*END

*D_NET *131 0.00833571

*CONN
*I *622:Y O *C 82.8 63.02 *L 0 *D AOI22X1
*I *598:S1 I *C 72.22 54.74 *L 0.00347 *D MX4X1
*I *584:A0 I *C 79.58 54.28 *L 0.00302 *D OAI21X1
*I *573:S0 I *C 72.22 32.2 *L 0.00642 *D MX4X1

*CAP
1 *622:Y 7.00777e-05
2 *584:A0 4.0008e-05
3 *598:S1 0.000175722
4 *573:S0 0.00161838
5 *131:4 0.00103788
6 *131:5 0.00159945
7 *131:6 0.00238573547
8 *131:6 *317:12 0.000901699063
9 *131:5 *2:64 0.000276684766
10 *131:5 *234:7 0.000230073926

*RES
1 *573:S0 *131:6 22.6843357
2 *131:6 *131:5 9.13105
3 *598:S1 *131:6 5.9878
4 *584:A0 *131:5 4.5818
5 *131:5 *131:4 15.6789
6 *131:4 *622:Y 4.97016
*END

*D_NET *132 0.000556469

*CONN
*I *584:Y O *C 80.96 54.74 *L 0 *D OAI21X1
*I *554:D I *C 82.34 55.2 *L 0.00181 *D DFFRX1

*CAP
1 *584:Y 0.000278234473
2 *554:D 0.000278234473

*RES
1 *554:D *584:Y 16.4456
*END

*D_NET *133 0.00203872

*CONN
*I *604:Y O *C 40.48 71.3 *L 0 *D AOI21X1
*I *583:B0 I *C 36.34 73.6 *L 0.00314 *D AOI21X1
*I *563:B0 I *C 40.02 74.06 *L 0.00309 *D AOI211X1

*CAP
1 *604:Y 0.000122196
2 *563:B0 0.000196094
3 *583:B0 0.000596881
4 *133:3 0.000226377
5 *133:4 0.000897169141

*RES
1 *583:B0 *133:4 8.89599323
2 *133:4 *133:3 3.53757
3 *563:B0 *133:4 8.78183
4 *133:3 *604:Y 5.74678
*END

*D_NET *134 0.00179279

*CONN
*I *583:Y O *C 36.8 73.14 *L 0 *D AOI21X1
*I *565:B I *C 34.04 73.6 *L 0.00197 *D AND2X1

*CAP
1 *583:Y 0.000220184
2 *565:B 0.000217376
3 *134:2 0.000679016094
4 *134:3 0.000676219

*RES
1 *565:B *134:3 6.41645
2 *134:3 *134:2 7.41493702
3 *134:2 *583:Y 6.82716
*END

*D_NET *135 0.0038321

*CONN
*I *603:A1 I *C 50.6 70.38 *L 0.00305 *D AOI21X1
*I *582:A0 I *C 50.14 73.6 *L 0.00302 *D OAI21X1
*I *369:B0 I *C 47.84 62.1 *L 0.00307 *D OAI221X1
*I *361:QN O *C 51.06 64.86 *L 0 *D DFFSX1

*CAP
1 *361:QN 1.22157e-05
2 *603:A1 3.53423e-05
3 *582:A0 0.00040638
4 *369:B0 0.000968393
5 *135:4 0.000935435
6 *135:5 0.00147432094

*RES
1 *369:B0 *135:5 21.389246
2 *582:A0 *135:4 14.0896
3 *603:A1 *135:4 4.58164
4 *135:4 *135:5 11.2021
5 *135:5 *361:QN 4.53464
*END

*D_NET *136 0.000504255

*CONN
*I *582:Y O *C 51.52 73.14 *L 0 *D OAI21X1
*I *568:B I *C 52.9 73.6 *L 0.00312 *D NOR2X1

*CAP
1 *582:Y 0.000252127656
2 *568:B 0.000252127656

*RES
1 *568:B *582:Y 16.3512
*END

*D_NET *137 0.0176834

*CONN
*I *636:B0 I *C 40.02 21.16 *L 0.00309 *D AOI221X1
*I *609:Y O *C 34.96 38.18 *L 0 *D INVX2
*I *594:B0 I *C 34.04 21.16 *L 0.00314 *D AOI21X1
*I *593:B I *C 32.66 70.84 *L 0.00312 *D NOR2X1
*I *589:B I *C 48.3 37.72 *L 0.00317 *D NAND2X1
*I *585:A1 I *C 45.54 70.38 *L 0.00305 *D AOI21X1
*I *580:A1 I *C 37.26 70.38 *L 0.00305 *D AOI21X1
*I *566:A1 I *C 35.88 21.16 *L 0.0031 *D AOI221X1

*CAP
1 *589:B 0.000716497
2 *585:A1 0.000866839
3 *636:B0 0.0004382
4 *580:A1 1.15724e-05
5 *566:A1 0.000137747
6 *609:Y 3.39588e-06
7 *594:B0 0.00030731
8 *593:B 0.000324422
9 *137:8 0.00123923
10 *137:9 0.00192154
11 *137:10 0.00168
12 *137:11 0.00211609
13 *137:12 0.00216066844
14 *137:13 0.000629424
15 *137:14 0.000791668
16 *137:11 *405:A0 0.000709533672
17 *137:9 *338:21 0.000890732
18 *589:B *338:15 0.000890731594
19 *636:B0 *636:B1 0.000261425977
20 *585:A1 *128:12 0.00133109094
21 *589:B *32:5 0.00025522709

*RES
1 *593:B *137:14 8.93855
2 *594:B0 *137:13 8.62548
3 *137:12 *609:Y 4.51028
4 *137:11 *137:12 27.9910564
5 *137:14 *137:11 3.51725
6 *137:13 *137:10 3.68168
7 *566:A1 *137:13 8.38886
8 *137:10 *137:9 18.9816
9 *137:9 *137:12 3.82562
10 *580:A1 *137:8 4.52694
11 *137:8 *137:14 3.94649
12 *636:B0 *137:10 13.0456
13 *585:A1 *137:8 12.8065
14 *589:B *137:9 9.87947
*END

*D_NET *138 0.0046984

*CONN
*I *593:Y O *C 33.12 71.3 *L 0 *D NOR2X1
*I *579:A I *C 33.58 79.12 *L 0.00303 *D CLKINVX1
*I *563:C0 I *C 40.48 73.6 *L 0.00313 *D AOI211X1

*CAP
1 *563:C0 0.00126068
2 *579:A 0.00055243
3 *593:Y 0.000536084
4 *138:3 0.00234919781

*RES
1 *138:3 *593:Y 15.5419
2 *579:A *138:3 15.5725479
3 *563:C0 *138:3 9.88373
*END

*D_NET *139 0.00144398

*CONN
*I *579:Y O *C 34.04 79.58 *L 0 *D CLKINVX1
*I *565:A I *C 33.12 74.06 *L 0.00182 *D AND2X1

*CAP
1 *579:Y 0.000721991094
2 *565:A 0.000721991094

*RES
1 *565:A *579:Y 27.7165
*END

*D_NET *140 0.00336039

*CONN
*I *578:Y O *C 68.08 69 *L 0 *D NAND2X1
*I *557:D I *C 57.5 71.76 *L 0.00181 *D DFFRX1

*CAP
1 *578:Y 0.000114628
2 *557:D 0.00156557
3 *140:2 0.00168019531

*RES
1 *557:D *140:2 14.0297413
2 *140:2 *578:Y 5.62187
*END

*D_NET *141 0.00473738

*CONN
*I *590:Y O *C 48.76 29.9 *L 0 *D AOI21X1
*I *577:B I *C 45.54 23.92 *L 0.00317 *D NAND2X1
*I *571:B I *C 46.92 21.16 *L 0.00317 *D NAND2X1

*CAP
1 *571:B 0.000537676
2 *590:Y 0.00172551
3 *577:B 0.000105504
4 *141:3 0.00236868859

*RES
1 *577:B *141:3 8.06927
2 *141:3 *590:Y 16.5313
3 *571:B *141:3 17.5457001
*END

*D_NET *142 0.00314772

*CONN
*I *588:Y O *C 39.56 23.46 *L 0 *D AOI21X1
*I *576:B I *C 47.84 23.92 *L 0.00317 *D NAND2X1
*I *575:B I *C 42.32 23.92 *L 0.00317 *D NAND2X1

*CAP
1 *576:B 0.000878033
2 *575:B 0.000126778
3 *588:Y 0.000569049
4 *142:3 0.00157386063

*RES
1 *142:3 *588:Y 8.78751
2 *575:B *142:3 8.06944
3 *576:B *142:3 8.88252258
*END

*D_NET *143 0.0159228

*CONN
*I *630:Y O *C 30.82 70.84 *L 0 *D NAND2X2
*I *621:A I *C 36.8 23.92 *L 0.00303 *D CLKINVX1
*I *613:B I *C 34.5 28.52 *L 0.0026 *D CLKAND2X2
*I *577:A I *C 45.08 23.92 *L 0.00306 *D NAND2X1
*I *576:A I *C 47.38 23.92 *L 0.00306 *D NAND2X1
*I *564:A1 I *C 46.46 32.2 *L 0.0031 *D OAI211X1

*CAP
1 *576:A 0.000276797
2 *564:A1 0.000419677
3 *577:A 0.000159009
4 *621:A 0.000311326
5 *613:B 5.91941e-05
6 *630:Y 0.0003136
7 *143:6 0.000919095
8 *143:7 0.00195002
9 *143:8 0.00281107438
10 *143:9 0.00111062
11 *143:10 0.00269895
12 *143:11 0.00250541
13 *143:11 *333:10 0.00161218641
14 *576:A *567:A1 0.000775814063

*RES
1 *143:11 *143:10 37.79459
2 *143:10 *630:Y 11.8362
3 *613:B *143:9 8.03631
4 *143:9 *143:11 3.75374
5 *143:8 *143:9 4.38465
6 *621:A *143:8 11.9256
7 *577:A *143:7 8.54092
8 *143:7 *143:8 4.79872
9 *143:6 *143:7 3.89561
10 *564:A1 *143:6 10.3719
11 *576:A *143:6 12.6949
*END

*D_NET *144 0.00127208

*CONN
*I *574:Y O *C 64.4 63.02 *L 0 *D OR3X1
*I *543:D I *C 62.1 64.4 *L 0.00181 *D DFFRX1

*CAP
1 *574:Y 0.000636041172
2 *543:D 0.000636041172

*RES
1 *543:D *574:Y 24.1214
*END

*D_NET *145 0.0183989

*CONN
*I *626:Y O *C 28.06 73.6 *L 0 *D NAND2X2
*I *620:A I *C 38.64 15.64 *L 0.00303 *D CLKINVX1
*I *613:A I *C 35.42 28.98 *L 0.00263 *D CLKAND2X2
*I *575:A I *C 41.86 23.92 *L 0.00306 *D NAND2X1
*I *571:A I *C 46.46 21.16 *L 0.00306 *D NAND2X1
*I *567:A1 I *C 49.22 32.2 *L 0.0031 *D OAI211X1

*CAP
1 *567:A1 0.00133987
2 *571:A 0.000550355
3 *575:A 0.000123587
4 *620:A 0.000844145
5 *613:A 0.000126908
6 *626:Y 3.96874e-05
7 *145:6 0.00200814
8 *145:7 0.000561236
9 *145:8 0.00211512
10 *145:9 0.00157713
11 *145:10 0.00329389
12 *145:11 0.00375312563
13 *567:A1 *590:A0 0.000193297871
14 *567:A1 *334:17 0.00050342082
15 *567:A1 *576:A 0.000775814063
16 *567:A1 *195:3 0.000593304648

*RES
1 *145:11 *145:10 38.9419785
2 *145:10 *626:Y 4.58193
3 *613:A *145:9 8.38011
4 *145:9 *145:11 4.61877
5 *620:A *145:8 16.1725
6 *145:8 *145:9 8.3397
7 *145:7 *145:8 0.388612
8 *575:A *145:7 8.12995
9 *145:6 *145:7 0.164595
10 *571:A *145:6 17.3616
11 *567:A1 *145:6 25.0245
*END

*D_NET *146 0.00782037

*CONN
*I *598:Y O *C 74.98 54.74 *L 0 *D MX4X1
*I *573:S1 I *C 73.6 31.74 *L 0.00347 *D MX4X1
*I *570:A I *C 86.94 46.46 *L 0.00178 *D MX2X1
*I *539:S0 I *C 74.98 40.48 *L 0.00642 *D MX4X1

*CAP
1 *570:A 0.00143981
2 *598:Y 0.00050365
3 *539:S0 0.000251994
4 *573:S1 0.000804419
5 *146:4 0.000577166
6 *146:5 0.00201666359
7 *146:6 0.00155979
8 *146:5 *1:56 0.000233173
9 *570:A *542:CK 0.000233173758
10 *570:A *542:RN 0.00020051002

*RES
1 *573:S1 *146:6 19.4565048
2 *146:6 *146:5 8.72568
3 *539:S0 *146:6 11.6559
4 *146:4 *598:Y 11.4344
5 *146:5 *146:4 3.51717
6 *570:A *146:5 9.89926
*END

*D_NET *147 0.0017463

*CONN
*I *570:Y O *C 88.78 46.46 *L 0 *D MX2X1
*I *542:D I *C 83.26 47.84 *L 0.00181 *D DFFRX1

*CAP
1 *570:Y 0.000256182
2 *542:D 0.000616966
3 *147:2 0.000873148438

*RES
1 *542:D *147:2 13.2995844
2 *147:2 *570:Y 6.68429
*END

*D_NET *148 0.00187683

*CONN
*I *603:Y O *C 51.52 71.3 *L 0 *D AOI21X1
*I *568:A I *C 52.44 74.06 *L 0.00302 *D NOR2X1
*I *555:B0 I *C 46.92 74.06 *L 0.00309 *D AOI211X1

*CAP
1 *568:A 0.000160872
2 *603:Y 0.000241701
3 *555:B0 0.000480235
4 *148:3 0.000297303
5 *148:4 0.000696718672

*RES
1 *555:B0 *148:4 9.10258293
2 *148:3 *603:Y 7.38071
3 *148:4 *148:3 3.51708
4 *568:A *148:4 8.52603
*END

*D_NET *149 0.00205636

*CONN
*I *597:Y O *C 51.06 29.9 *L 0 *D OAI21X1
*I *567:C0 I *C 50.14 32.2 *L 0.00312 *D OAI211X1
*I *564:C0 I *C 47.38 32.2 *L 0.00312 *D OAI211X1

*CAP
1 *567:C0 1.22845e-05
2 *597:Y 0.00048465
3 *564:C0 0.000531262
4 *149:3 0.00102818016

*RES
1 *564:C0 *149:3 11.9393
2 *149:3 *597:Y 13.5349035
3 *567:C0 *149:3 4.52416
*END

*D_NET *150 0.00215292

*CONN
*I *589:Y O *C 48.3 35.88 *L 0 *D NAND2X1
*I *567:B0 I *C 49.68 32.2 *L 0.0031 *D OAI211X1
*I *564:B0 I *C 46.92 32.2 *L 0.0031 *D OAI211X1

*CAP
1 *567:B0 0.000469152
2 *589:Y 0.000150082
3 *564:B0 0.000457226
4 *150:3 0.00107645992

*RES
1 *564:B0 *150:3 12.9992
2 *150:3 *589:Y 6.03247
3 *567:B0 *150:3 13.0265951
*END

*D_NET *151 0.00200093

*CONN
*I *636:C0 I *C 40.48 21.16 *L 0.00321 *D AOI221X1
*I *594:Y O *C 34.5 21.62 *L 0 *D AOI21X1
*I *566:C0 I *C 37.26 21.16 *L 0.00321 *D AOI221X1

*CAP
1 *636:C0 0.000495141
2 *594:Y 0.000417238
3 *566:C0 8.81007e-05
4 *151:3 0.00100046398

*RES
1 *566:C0 *151:3 8.02619
2 *151:3 *594:Y 8.63575935
3 *636:C0 *151:3 8.47882
*END

*D_NET *152 0.00784004

*CONN
*I *567:A0 I *C 48.76 32.2 *L 0.00299 *D OAI211X1
*I *564:A0 I *C 46 32.2 *L 0.00299 *D OAI211X1
*I *367:B0 I *C 56.58 37.26 *L 0.00307 *D OAI221X1
*I *360:QN O *C 60.72 29.9 *L 0 *D DFFSX1

*CAP
1 *360:QN 0.00137774
2 *367:B0 0.000607378
3 *567:A0 9.27472e-05
4 *564:A0 0.000291219
5 *152:4 0.00265771156
6 *152:5 0.00105656
7 *152:4 *1:71 0.000306844707
8 *152:4 *334:18 0.000724912
9 *367:B0 *334:17 0.000724911438

*RES
1 *564:A0 *152:5 8.42201
2 *567:A0 *152:5 8.04147
3 *152:5 *152:4 1.24543
4 *367:B0 *152:4 19.1687355
5 *152:4 *360:QN 16.4363
*END

*D_NET *153 0.00552714

*CONN
*I *634:Y O *C 32.2 73.14 *L 0 *D NOR2X1
*I *624:A I *C 46.92 79.12 *L 0.00303 *D CLKINVX1
*I *563:A1 I *C 39.1 74.06 *L 0.00301 *D AOI211X1
*I *555:A1 I *C 46 74.06 *L 0.00301 *D AOI211X1

*CAP
1 *624:A 0.000433616
2 *555:A1 7.78455e-05
3 *563:A1 8.90417e-05
4 *634:Y 0.000927987
5 *153:4 0.000534052
6 *153:5 0.000602791
7 *153:6 0.00144153828
8 *153:4 *160:5 0.00118768219
9 *153:4 *252:4 0.000232577324

*RES
1 *153:6 *634:Y 9.73963737
2 *563:A1 *153:6 8.03889
3 *153:5 *153:6 1.02931
4 *555:A1 *153:5 8.03889
5 *153:4 *153:5 3.60956
6 *624:A *153:4 8.69324
*END

*D_NET *154 0.000905991

*CONN
*I *562:Y O *C 57.04 60.72 *L 0 *D NAND2X1
*I *373:C0 I *C 55.2 62.56 *L 0.00312 *D OAI211X1

*CAP
1 *562:Y 0.000452995313
2 *373:C0 0.000452995313

*RES
1 *373:C0 *562:Y 17.6618
*END

*D_NET *155 0.00131738

*CONN
*I *561:Y O *C 28.98 27.6 *L 0 *D NAND2X1
*I *368:C0 I *C 28.06 32.2 *L 0.00312 *D OAI211X1

*CAP
1 *561:Y 0.000370921
2 *368:C0 0.00028777
3 *155:2 0.000658690938

*RES
1 *368:C0 *155:2 11.6509199
2 *155:2 *561:Y 8.27365
*END

*D_NET *156 0.00203252

*CONN
*I *560:Y O *C 53.82 35.88 *L 0 *D NAND2X1
*I *374:C0 I *C 59.8 37.72 *L 0.00312 *D OAI211X1

*CAP
1 *560:Y 0.00101625922
2 *374:C0 0.00101625922

*RES
1 *374:C0 *560:Y 18.1096
*END

*D_NET *157 0.00643378

*CONN
*I *580:Y O *C 38.18 71.3 *L 0 *D AOI21X1
*I *559:B I *C 48.76 79.12 *L 0.00317 *D NAND2X1
*I *553:B I *C 36.34 79.12 *L 0.00317 *D NAND2X1

*CAP
1 *559:B 0.00197125
2 *580:Y 0.000630859
3 *553:B 0.000284306
4 *157:3 0.000725161
5 *157:4 0.00234985344
6 *559:B *207:3 0.000472366797

*RES
1 *553:B *157:4 8.26516
2 *157:3 *580:Y 11.1933
3 *157:4 *157:3 3.5172
4 *559:B *157:4 15.9595013
*END

*D_NET *158 0.00214458

*CONN
*I *624:Y O *C 47.38 79.58 *L 0 *D CLKINVX1
*I *559:A I *C 48.3 79.12 *L 0.00306 *D NAND2X1
*I *558:A I *C 45.08 79.12 *L 0.00306 *D NAND2X1

*CAP
1 *559:A 0.000316625
2 *624:Y 0.000176197
3 *558:A 0.000501696
4 *158:3 0.000253973
5 *158:4 0.00089609625

*RES
1 *558:A *158:4 9.79578495
2 *158:3 *624:Y 6.3808
3 *158:4 *158:3 3.51722
4 *559:A *158:4 9.57965
*END

*D_NET *159 0.00327575

*CONN
*I *585:Y O *C 46.46 71.3 *L 0 *D AOI21X1
*I *558:B I *C 45.54 79.12 *L 0.00317 *D NAND2X1
*I *556:B I *C 50.6 79.12 *L 0.00317 *D NAND2X1

*CAP
1 *556:B 0.000615591
2 *585:Y 0.000611189
3 *558:B 0.000317336
4 *159:3 0.000704952
5 *159:4 0.00102669

*RES
1 *558:B *159:4 9.03505
2 *159:3 *585:Y 10.103941
3 *159:4 *159:3 3.51717
4 *556:B *159:4 9.53951
*END

*D_NET *160 0.00777435

*CONN
*I *631:Y O *C 29.9 75.44 *L 0 *D NAND2X1
*I *627:A I *C 37.72 73.6 *L 0.00583 *D INVX2
*I *582:A1 I *C 50.6 73.6 *L 0.00314 *D OAI21X1
*I *556:A I *C 50.14 79.12 *L 0.00306 *D NAND2X1
*I *553:A I *C 35.88 79.12 *L 0.00306 *D NAND2X1

*CAP
1 *582:A1 9.93127e-05
2 *556:A 0.000451212
3 *627:A 1.78629e-06
4 *553:A 0.000281862
5 *631:Y 0.000678244
6 *160:5 0.00136232
7 *160:6 0.000513856
8 *160:7 0.00162589547
9 *160:8 0.00119614
10 *160:9 0.000376039
11 *160:5 *153:4 0.00118768219

*RES
1 *160:9 *160:8 3.51721
2 *160:8 *631:Y 8.90875
3 *553:A *160:9 7.60403
4 *160:7 *160:8 5.04393
5 *627:A *160:7 4.50378
6 *160:6 *160:5 3.51721
7 *160:5 *160:7 5.41127
8 *556:A *160:6 9.23788548
9 *582:A1 *160:5 8.04143
*END

*D_NET *161 0.00483119

*CONN
*I *552:Y O *C 17.48 63.02 *L 0 *D AOI22X1
*I *505:B0 I *C 30.82 62.56 *L 0.00315 *D OAI21X1

*CAP
1 *505:B0 0.00225824
2 *552:Y 0.000157354
3 *161:2 0.0024155975

*RES
1 *161:2 *552:Y 5.7557
2 *505:B0 *161:2 14.4175291
*END

*D_NET *162 0.00346327

*CONN
*I *551:Y O *C 11.5 73.14 *L 0 *D AOI22X1
*I *514:B0 I *C 23.46 73.6 *L 0.00315 *D OAI21X1

*CAP
1 *551:Y 0.00173163406
2 *514:B0 0.00173163406

*RES
1 *514:B0 *551:Y 18.0087
*END

*D_NET *163 0.00628972

*CONN
*I *550:Y O *C 15.64 64.86 *L 0 *D AOI22X1
*I *512:B0 I *C 25.76 73.6 *L 0.00315 *D OAI21X1

*CAP
1 *550:Y 0.00314486031
2 *512:B0 0.00314486031

*RES
1 *512:B0 *550:Y 25.209
*END

*D_NET *164 0.00323188

*CONN
*I *549:Y O *C 13.8 56.58 *L 0 *D AOI22X1
*I *511:B0 I *C 24.84 54.28 *L 0.00315 *D OAI21X1

*CAP
1 *549:Y 0.00161594156
2 *511:B0 0.00161594156

*RES
1 *511:B0 *549:Y 19.4693
*END

*D_NET *165 0.0021565

*CONN
*I *568:Y O *C 53.36 73.14 *L 0 *D NOR2X1
*I *547:A I *C 52.9 79.12 *L 0.00303 *D CLKINVX1
*I *460:B0 I *C 55.66 74.06 *L 0.00309 *D OAI22X1

*CAP
1 *460:B0 0.000459187
2 *568:Y 0.000181197
3 *547:A 0.000437848
4 *165:3 0.00107824805

*RES
1 *547:A *165:3 14.5035982
2 *165:3 *568:Y 6.28247
3 *460:B0 *165:3 12.804
*END

*D_NET *166 0.00061357

*CONN
*I *547:Y O *C 53.36 79.58 *L 0 *D CLKINVX1
*I *513:A0 I *C 54.28 79.12 *L 0.00302 *D OAI21X1

*CAP
1 *547:Y 0.000306785098
2 *513:A0 0.000306785098

*RES
1 *513:A0 *547:Y 16.3851
*END

*D_NET *167 0.00232804

*CONN
*I *555:Y O *C 47.84 73.14 *L 0 *D AOI211X1
*I *546:A I *C 44.62 73.6 *L 0.00303 *D CLKINVX1
*I *467:A0 I *C 41.86 73.6 *L 0.00297 *D OAI22X1

*CAP
1 *546:A 0.00016403
2 *555:Y 0.000512428
3 *467:A0 0.000487561
4 *167:3 0.00116401914

*RES
1 *467:A0 *167:3 8.75174999
2 *167:3 *555:Y 8.51204
3 *546:A *167:3 8.37116
*END

*D_NET *168 0.00511742

*CONN
*I *546:Y O *C 45.08 73.14 *L 0 *D CLKINVX1
*I *506:A0 I *C 40.02 79.12 *L 0.00302 *D OAI21X1

*CAP
1 *546:Y 0.00236332422
2 *506:A0 0.00236332422
3 *506:A0 *207:3 0.000390768047

*RES
1 *506:A0 *546:Y 24.8772
*END

*D_NET *169 0.00450885

*CONN
*I *564:Y O *C 47.84 31.74 *L 0 *D OAI211X1
*I *545:A I *C 42.78 37.72 *L 0.00303 *D CLKINVX1
*I *530:A0 I *C 40.02 32.2 *L 0.00302 *D OAI21X1

*CAP
1 *545:A 0.0011176
2 *530:A0 0.000138565
3 *564:Y 0.000998264
4 *169:3 0.00225442641

*RES
1 *169:3 *564:Y 9.25307
2 *530:A0 *169:3 8.44239
3 *545:A *169:3 20.6725597
*END

*D_NET *170 0.00130141

*CONN
*I *545:Y O *C 43.24 38.18 *L 0 *D CLKINVX1
*I *471:B I *C 40.94 38.18 *L 0.00181 *D MX2X1

*CAP
1 *545:Y 0.000102458
2 *471:B 0.000548245
3 *170:2 0.000650703906

*RES
1 *471:B *170:2 12.7058029
2 *170:2 *545:Y 5.36278
*END

*D_NET *171 0.00245094

*CONN
*I *567:Y O *C 50.6 31.74 *L 0 *D OAI211X1
*I *544:A I *C 51.06 23.92 *L 0.00303 *D CLKINVX1
*I *525:A0 I *C 49.22 21.16 *L 0.00302 *D OAI21X1

*CAP
1 *544:A 0.000174934
2 *567:Y 0.000586566
3 *525:A0 0.000463972
4 *171:3 0.00122547148

*RES
1 *525:A0 *171:3 14.1005516
2 *171:3 *567:Y 11.0503
3 *544:A *171:3 11.6069
*END

*D_NET *172 0.000889063

*CONN
*I *544:Y O *C 51.52 23.46 *L 0 *D CLKINVX1
*I *476:A0 I *C 53.36 23.92 *L 0.00297 *D OAI22X1

*CAP
1 *544:Y 0.000444531445
2 *476:A0 0.000444531445

*RES
1 *476:A0 *544:Y 16.7128
*END

*D_NET *173 0.00291002

*CONN
*I *556:Y O *C 50.6 77.28 *L 0 *D NAND2X1
*I *541:A I *C 59.34 79.12 *L 0.00303 *D CLKINVX1
*I *513:B0 I *C 55.2 79.12 *L 0.00315 *D OAI21X1

*CAP
1 *541:A 0.000582869
2 *513:B0 0.000161409
3 *556:Y 0.000710731
4 *173:3 0.00145500891

*RES
1 *173:3 *556:Y 9.49537754
2 *513:B0 *173:3 8.398
3 *541:A *173:3 8.99479
*END

*D_NET *174 0.00281203

*CONN
*I *541:Y O *C 59.8 79.58 *L 0 *D CLKINVX1
*I *461:B0 I *C 58.42 74.06 *L 0.00309 *D OAI22X1

*CAP
1 *541:Y 0.00140601391
2 *461:B0 0.00140601391

*RES
1 *461:B0 *541:Y 24.4788
*END

*D_NET *175 0.00377786

*CONN
*I *559:Y O *C 48.76 77.28 *L 0 *D NAND2X1
*I *540:A I *C 60.72 79.12 *L 0.00303 *D CLKINVX1
*I *486:A I *C 56.58 79.12 *L 0.00306 *D NAND2X1

*CAP
1 *540:A 0.000566838
2 *559:Y 0.00118351
3 *486:A 0.000138582
4 *175:3 0.00188893078

*RES
1 *486:A *175:3 8.27291
2 *175:3 *559:Y 11.0892057
3 *540:A *175:3 8.86971
*END

*D_NET *176 0.0040704

*CONN
*I *540:Y O *C 61.18 79.58 *L 0 *D CLKINVX1
*I *461:A0 I *C 57.04 73.6 *L 0.00297 *D OAI22X1

*CAP
1 *540:Y 0.00203520063
2 *461:A0 0.00203520063

*RES
1 *461:A0 *540:Y 24.6122
*END

*D_NET *177 0.00925613

*CONN
*I *573:Y O *C 76.36 31.74 *L 0 *D MX4X1
*I *539:S1 I *C 76.36 40.02 *L 0.00347 *D MX4X1
*I *538:A I *C 83.26 46.46 *L 0.00178 *D MX2X1
*I *502:S0 I *C 71.3 23.92 *L 0.00642 *D MX4X1

*CAP
1 *538:A 0.00181716
2 *539:S1 8.67802e-05
3 *573:Y 9.84007e-05
4 *502:S0 0.00111378
5 *177:4 0.00271981969
6 *177:5 0.00202807
7 *502:S0 *1:66 0.000220418
8 *177:5 *1:68 0.000220417938
9 *177:4 *473:S0 0.000229120254
10 *538:A *317:10 0.000293016426
11 *538:A *386:B 0.000429153438

*RES
1 *502:S0 *177:5 21.9984055
2 *177:5 *573:Y 8.07955
3 *539:S1 *177:4 8.10943
4 *177:4 *177:5 14.4213
5 *538:A *177:4 17.2108
*END

*D_NET *178 0.00315785

*CONN
*I *538:Y O *C 85.1 46.46 *L 0 *D MX2X1
*I *523:D I *C 84.18 39.56 *L 0.00181 *D DFFRX1

*CAP
1 *538:Y 0.00157892703
2 *523:D 0.00157892703

*RES
1 *523:D *538:Y 24.9178
*END

*D_NET *179 0.000831127

*CONN
*I *537:Y O *C 12.88 46.46 *L 0 *D AOI222X1
*I *516:A I *C 14.72 46 *L 0.00303 *D CLKINVX1

*CAP
1 *537:Y 0.000415563594
2 *516:A 0.000415563594

*RES
1 *516:A *537:Y 16.3786
*END

*D_NET *180 0.00327814

*CONN
*I *536:Y O *C 11.5 21.62 *L 0 *D AOI22X1
*I *521:A I *C 22.54 20.7 *L 0.00306 *D INVX1

*CAP
1 *521:A 0.00158357
2 *536:Y 5.54985e-05
3 *180:2 0.00163906813

*RES
1 *180:2 *536:Y 4.73792
2 *521:A *180:2 13.3429766
*END

*D_NET *181 0.00157356

*CONN
*I *535:Y O *C 11.5 15.18 *L 0 *D AOI22X1
*I *520:A I *C 14.72 12.42 *L 0.00306 *D INVX1

*CAP
1 *535:Y 0.000786781328
2 *520:A 0.000786781328

*RES
1 *520:A *535:Y 25.3867
*END

*D_NET *182 0.000919104

*CONN
*I *534:Y O *C 21.62 13.34 *L 0 *D AOI22X1
*I *519:A I *C 24.84 12.42 *L 0.00306 *D INVX1

*CAP
1 *519:A 0.000393208
2 *534:Y 6.63435e-05
3 *182:2 0.000459551797

*RES
1 *182:2 *534:Y 4.97005
2 *519:A *182:2 12.0164156
*END

*D_NET *183 0.00341487

*CONN
*I *533:Y O *C 12.88 54.74 *L 0 *D AOI222X1
*I *518:A I *C 17.02 57.04 *L 0.00303 *D CLKINVX1

*CAP
1 *533:Y 0.00170743469
2 *518:A 0.00170743469

*RES
1 *518:A *533:Y 24.2469
*END

*D_NET *184 0.005162

*CONN
*I *532:Y O *C 12.88 48.3 *L 0 *D AOI222X1
*I *517:A I *C 23.92 48.76 *L 0.00303 *D CLKINVX1

*CAP
1 *532:Y 0.00249552734
2 *517:A 0.00249552734
3 *517:A *349:3 0.000170946113

*RES
1 *517:A *532:Y 24.4392
*END

*D_NET *185 0.00304246

*CONN
*I *531:Y O *C 11.5 23.46 *L 0 *D AOI22X1
*I *522:A I *C 22.54 24.38 *L 0.00306 *D INVX1

*CAP
1 *531:Y 0.00152122969
2 *522:A 0.00152122969

*RES
1 *522:A *531:Y 18.7594
*END

*D_NET *186 0.00265527

*CONN
*I *577:Y O *C 45.54 25.76 *L 0 *D NAND2X1
*I *530:B0 I *C 40.94 32.2 *L 0.00315 *D OAI21X1
*I *470:A0 I *C 40.94 29.9 *L 0.00299 *D AOI22X1

*CAP
1 *530:B0 0.000208013
2 *577:Y 0.00110007
3 *470:A0 1.95494e-05
4 *186:3 0.00132763391

*RES
1 *470:A0 *186:3 4.5601
2 *186:3 *577:Y 22.3172913
3 *530:B0 *186:3 6.34961
*END

*D_NET *187 0.00114536

*CONN
*I *530:Y O *C 41.4 31.74 *L 0 *D OAI21X1
*I *503:B I *C 39.56 29.44 *L 0.00317 *D NAND2X1

*CAP
1 *530:Y 0.000572681445
2 *503:B 0.000572681445

*RES
1 *503:B *530:Y 17.9194
*END

*D_NET *188 0.00284648

*CONN
*I *529:Y O *C 12.88 64.86 *L 0 *D AOI222X1
*I *510:A I *C 14.72 79.12 *L 0.00303 *D CLKINVX1

*CAP
1 *510:A 0.00104601
2 *529:Y 0.000377229
3 *188:2 0.00142323969

*RES
1 *188:2 *529:Y 11.8052
2 *510:A *188:2 16.8628693
*END

*D_NET *189 0.000823379

*CONN
*I *528:Y O *C 12.88 40.02 *L 0 *D AOI222X1
*I *509:A I *C 14.72 40.48 *L 0.00303 *D CLKINVX1

*CAP
1 *528:Y 0.000411689297
2 *509:A 0.000411689297

*RES
1 *509:A *528:Y 16.6096
*END

*D_NET *190 0.00138307

*CONN
*I *527:Y O *C 14.72 63.02 *L 0 *D AOI222X1
*I *508:A I *C 17.48 65.32 *L 0.00303 *D CLKINVX1

*CAP
1 *527:Y 0.000691533125
2 *508:A 0.000691533125

*RES
1 *508:A *527:Y 18.0445
*END

*D_NET *191 0.0189558

*CONN
*I *569:Y O *C 29.44 38.18 *L 0 *D AND2X2
*I *548:A I *C 19.32 62.56 *L 0.00583 *D INVX2
*I *537:C1 I *C 13.8 45.54 *L 0.00303 *D AOI222X1
*I *536:A1 I *C 11.04 21.16 *L 0.00311 *D AOI22X1
*I *535:A1 I *C 11.04 15.64 *L 0.00311 *D AOI22X1
*I *534:A1 I *C 21.16 12.88 *L 0.00311 *D AOI22X1
*I *533:C1 I *C 13.8 53.82 *L 0.00303 *D AOI222X1
*I *532:C1 I *C 13.8 49.22 *L 0.00303 *D AOI222X1
*I *531:A1 I *C 11.04 23.92 *L 0.00311 *D AOI22X1
*I *529:C1 I *C 13.8 65.78 *L 0.00303 *D AOI222X1
*I *528:C1 I *C 13.8 40.94 *L 0.00303 *D AOI222X1
*I *527:C1 I *C 15.64 62.1 *L 0.00303 *D AOI222X1
*I *526:C1 I *C 14.72 28.98 *L 0.00303 *D AOI222X1
*I *524:C1 I *C 14.26 37.26 *L 0.00303 *D AOI222X1

*CAP
1 *534:A1 0.00126159
2 *548:A 0.000377368
3 *569:Y 0.00085085
4 *527:C1 0.000139844
5 *526:C1 0.000146743
6 *524:C1 2.13975e-05
7 *529:C1 0.000202891
8 *533:C1 1.79365e-05
9 *532:C1 1.38207e-05
10 *537:C1 1.64399e-05
11 *528:C1 1.13886e-05
12 *531:A1 7.03429e-05
13 *536:A1 3.75568e-05
14 *535:A1 1.73987e-05
15 *191:14 0.000684441
16 *191:15 0.00141334
17 *191:16 0.000577687
18 *191:17 0.00102891
19 *191:18 0.000833569
20 *191:19 0.000320916
21 *191:20 0.000300641
22 *191:21 0.000875779
23 *191:22 0.000223166
24 *191:23 0.00110799
25 *191:24 0.000803776
26 *191:25 0.000384103
27 *191:26 0.00153255469
28 *191:26 *192:21 0.000687003
29 *191:25 *192:22 0.00068700325
30 *191:24 *494:CK 2.8789e-05
31 *191:24 *1:102 4.51207e-05
32 *191:24 *1:103 0.000167727
33 *191:24 *1:104 0.000117242
34 *191:24 *497:CK 3.09944e-06
35 *191:23 *482:CK 2.99215e-05
36 *191:23 *1:101 3.17693e-05
37 *191:23 *1:102 0.000209033
38 *191:21 *1:96 0.00029093
39 *537:C1 *1:100 8.28505e-06
40 *191:20 *1:96 8.46386e-06
41 *191:20 *1:100 8.88109e-05
42 *191:20 *1:101 3.99351e-06
43 *191:19 *1:100 5.81741e-05
44 *532:C1 *1:100 1.01924e-05
45 *191:18 *481:CK 8.9407e-07
46 *191:18 *1:100 9.31025e-05
47 *191:16 *1:101 0.000418901
48 *524:C1 *1:101 2.3365e-05
49 *526:C1 *1:102 1.77622e-05
50 *534:A1 *1:90 9.55746459e-07
51 *531:A1 *343:4 0.000312805176
52 *531:A1 *537:A0 0.000528812422
53 *191:15 *347:4 0.000790775
54 *569:Y *347:3 0.000790774688
55 *526:C1 *346:3 0.000229716309

*RES
1 *191:26 *191:25 4.64276
2 *535:A1 *191:26 4.58175
3 *536:A1 *191:25 4.58175
4 *191:25 *191:24 1.2724
5 *191:24 *191:23 12.6031
6 *531:A1 *191:24 5.1575
7 *191:22 *191:21 3.53758
8 *528:C1 *191:22 4.56752
9 *537:C1 *191:20 4.58175
10 *191:20 *191:22 3.54011
11 *191:19 *191:20 3.00013
12 *532:C1 *191:19 4.58175
13 *533:C1 *191:18 4.58175
14 *191:18 *191:19 3.82133
15 *191:17 *191:18 8.05808
16 *529:C1 *191:17 6.58612
17 *191:23 *191:16 7.04007
18 *524:C1 *191:16 4.58175
19 *191:16 *191:21 6.7538
20 *191:21 *191:15 9.95189
21 *526:C1 *191:23 11.561
22 *527:C1 *191:14 8.7639
23 *191:14 *191:17 3.75366
24 *191:15 *569:Y 9.77733
25 *548:A *191:14 8.87814
26 *534:A1 *191:26 15.0330067
*END

*D_NET *192 0.0362495

*CONN
*I *611:Y O *C 65.78 73.14 *L 0 *D AND3X2
*I *608:A I *C 32.2 57.5 *L 0.0058 *D CLKINVX2
*I *574:B I *C 63.02 62.56 *L 0.00185 *D OR3X1
*I *552:B1 I *C 17.48 62.56 *L 0.00319 *D AOI22X1
*I *551:B1 I *C 11.5 73.6 *L 0.00319 *D AOI22X1
*I *550:B1 I *C 15.64 65.32 *L 0.00319 *D AOI22X1
*I *549:B1 I *C 13.8 57.04 *L 0.00319 *D AOI22X1
*I *537:B1 I *C 11.5 46 *L 0.00311 *D AOI222X1
*I *536:B1 I *C 11.5 21.16 *L 0.00319 *D AOI22X1
*I *535:B1 I *C 11.5 15.64 *L 0.00319 *D AOI22X1
*I *534:B1 I *C 21.62 12.88 *L 0.00319 *D AOI22X1
*I *533:B1 I *C 11.5 54.28 *L 0.00311 *D AOI222X1
*I *532:B1 I *C 11.5 48.76 *L 0.00311 *D AOI222X1
*I *531:B1 I *C 11.5 23.92 *L 0.00319 *D AOI22X1
*I *529:B1 I *C 11.5 65.32 *L 0.00311 *D AOI222X1
*I *528:B1 I *C 11.5 40.48 *L 0.00311 *D AOI222X1
*I *527:B1 I *C 13.34 62.56 *L 0.00311 *D AOI222X1
*I *526:B1 I *C 12.42 29.44 *L 0.00311 *D AOI222X1
*I *524:B1 I *C 11.96 37.72 *L 0.00311 *D AOI222X1

*CAP
1 *574:B 0.000152655
2 *611:Y 0.00195157
3 *608:A 0.000495287
4 *534:B1 0.000340233
5 *552:B1 3.82837e-05
6 *550:B1 0.000156015
7 *549:B1 0.000302909
8 *527:B1 8.76084e-05
9 *526:B1 0.000174617
10 *524:B1 0.000128892
11 *551:B1 0.000535971
12 *529:B1 2.92828e-05
13 *533:B1 2.78427e-05
14 *532:B1 2.51424e-05
15 *537:B1 2.18421e-05
16 *528:B1 3.29431e-05
17 *531:B1 2.61625e-05
18 *536:B1 3.04829e-05
19 *535:B1 0.000116591
20 *192:19 0.00393247594
21 *192:20 0.0010084
22 *192:21 0.00292774
23 *192:22 0.000780255
24 *192:23 0.000341793
25 *192:24 0.000642001
26 *192:25 0.000279147
27 *192:26 0.000488447
28 *192:27 0.000673984
29 *192:28 0.0004207
30 *192:29 0.000452263
31 *192:30 0.0004201
32 *192:31 0.000392438
33 *192:32 0.000434262
34 *192:33 0.000653703
35 *192:34 0.00041938
36 *192:35 0.000323131
37 *192:36 0.000956251
38 *192:36 *1:105 0.000558496
39 *551:B1 *483:CK 1.49012e-06
40 *192:22 *1:93 1.37091e-06
41 *192:22 *1:97 3.69549e-06
42 *192:22 *1:94 4.47035e-06
43 *534:B1 *485:CK 4.70877e-06
44 *192:20 *1:90 0.000558495002
45 *192:36 *344:4 0.000621557
46 *192:20 *344:3 0.000621557453
47 *192:33 *334:23 0.000278771
48 *192:33 *524:A1 2.64645e-05
49 *192:32 *334:32 0.000145733
50 *192:31 *334:30 7.7486e-06
51 *192:31 *537:A1 2.41399e-05
52 *192:31 *528:A1 2.37823e-05
53 *192:31 *334:31 0.000249624
54 *192:31 *334:32 7.39098e-06
55 *192:30 *334:30 0.000131607
56 *528:B1 *334:32 2.2769e-05
57 *537:B1 *334:30 2.47955e-05
58 *192:29 *334:28 7.03335e-06
59 *192:29 *533:A1 2.16961e-05
60 *192:29 *532:A1 2.16365e-05
61 *192:29 *334:29 0.000230908
62 *192:29 *334:30 6.91414e-06
63 *192:28 *334:28 0.00014472
64 *532:B1 *334:30 2.25902e-05
65 *533:B1 *334:28 2.28882e-05
66 *192:27 *334:26 1.20997e-05
67 *192:27 *334:27 0.000231802
68 *192:26 *334:24 1.81198e-05
69 *192:26 *334:26 5.28097e-05
70 *192:26 *334:25 0.000192165
71 *192:25 *550:A1 4.97103e-05
72 *192:25 *334:22 1.7941e-05
73 *192:25 *334:24 0.000212312
74 *192:24 *334:26 5.00679e-06
75 *192:24 *334:25 5.75781e-05
76 *529:B1 *334:25 2.38419e-05
77 *551:B1 *551:A1 0.000416517
78 *551:B1 *529:A1 2.16961e-05
79 *551:B1 *334:25 7.21216e-06
80 *524:B1 *524:A1 5.47171e-05
81 *526:B1 *334:23 1.19805e-05
82 *526:B1 *526:A1 0.000134706
83 *527:B1 *334:24 4.98295e-05
84 *527:B1 *334:26 0.000103593
85 *192:23 *334:21 0.000189483
86 *192:23 *552:A1 4.98891e-05
87 *192:23 *334:22 0.000146866
88 *549:B1 *549:A1 8.08835e-05
89 *549:B1 *334:27 3.75509e-06
90 *192:22 *334:21 0.000894308
91 *550:B1 *552:A1 9.0003e-06
92 *550:B1 *550:A1 6.33597e-05
93 *550:B1 *334:22 4.96507e-05
94 *552:B1 *334:21 7.86185e-05
95 *192:21 *334:21 0.000150204
96 *192:21 *334:20 0.000894308
97 *192:19 *334:20 6.23484863e-05
98 *192:33 *537:A0 0.000197410586
99 *549:B1 *527:A0 0.000385880469
100 *192:22 *191:25 0.000687003
101 *192:21 *191:26 0.00068700325
102 *192:22 *505:A1 0.000791192031
103 *552:B1 *552:A0 0.00023078918
104 *192:21 *333:8 0.00101780891
105 *192:21 *34:5 0.000248312949
106 *534:B1 *343:4 0.000214338301
107 *192:19 *326:10 0.00171286
108 *574:B *326:9 0.0017128575

*RES
1 *535:B1 *192:36 5.88076
2 *192:36 *192:35 3.01334
3 *536:B1 *192:35 4.58177
4 *192:35 *192:34 2.17858
5 *192:34 *192:33 4.79922
6 *531:B1 *192:34 4.58177
7 *192:33 *192:32 6.75009
8 *192:32 *192:31 2.29017
9 *192:31 *192:30 4.64281
10 *528:B1 *192:31 4.58177
11 *537:B1 *192:30 4.58177
12 *192:30 *192:29 2.17858
13 *192:29 *192:28 4.64281
14 *532:B1 *192:29 4.58177
15 *533:B1 *192:28 4.58177
16 *192:28 *192:27 2.20075
17 *192:27 *192:26 5.66068
18 *192:26 *192:25 3.75368
19 *192:24 *192:26 1.04911
20 *529:B1 *192:24 4.58177
21 *551:B1 *192:24 11.6888
22 *524:B1 *192:32 11.5865
23 *526:B1 *192:33 11.6714
24 *527:B1 *192:25 8.89792
25 *192:25 *192:23 0.308535
26 *549:B1 *192:27 11.8493
27 *192:23 *192:22 8.10178
28 *550:B1 *192:23 9.1478
29 *552:B1 *192:22 8.03764
30 *192:22 *192:21 5.6273
31 *534:B1 *192:20 8.34499
32 *192:20 *192:36 8.56816
33 *192:21 *192:19 12.0381
34 *608:A *192:21 15.6260729
35 *192:19 *611:Y 13.7191
36 *574:B *192:19 11.5243
*END

*D_NET *193 0.00222385

*CONN
*I *526:Y O *C 13.8 29.9 *L 0 *D AOI222X1
*I *507:A I *C 18.4 32.2 *L 0.00303 *D CLKINVX1

*CAP
1 *507:A 0.000315957
2 *526:Y 0.000795967
3 *193:2 0.00111192461

*RES
1 *193:2 *526:Y 13.2982731
2 *507:A *193:2 7.6485
*END

*D_NET *194 0.00243807

*CONN
*I *571:Y O *C 46.92 19.32 *L 0 *D NAND2X1
*I *525:B0 I *C 50.14 21.16 *L 0.00315 *D OAI21X1
*I *469:A0 I *C 53.82 21.62 *L 0.00299 *D AOI22X1

*CAP
1 *469:A0 0.000516241
2 *571:Y 0.000606364
3 *525:B0 9.64476e-05
4 *194:3 0.00121903422

*RES
1 *525:B0 *194:3 8.02616
2 *194:3 *571:Y 9.83273983
3 *469:A0 *194:3 8.77994
*END

*D_NET *195 0.00672102

*CONN
*I *566:Y O *C 37.72 21.62 *L 0 *D AOI221X1
*I *525:A1 I *C 49.68 21.16 *L 0.00314 *D OAI21X1
*I *476:B0 I *C 54.74 24.38 *L 0.00309 *D OAI22X1

*CAP
1 *476:B0 0.00147147
2 *525:A1 0.000179606
3 *566:Y 0.00117095
4 *195:3 0.00282198188
5 *195:3 *567:A1 0.000593304648
6 *195:3 *636:B1 0.000127553936
7 *476:B0 *219:3 0.000356197344

*RES
1 *195:3 *566:Y 13.2838488
2 *525:A1 *195:3 11.5332
3 *476:B0 *195:3 12.8181
*END

*D_NET *196 0.00101292

*CONN
*I *525:Y O *C 50.6 21.62 *L 0 *D OAI21X1
*I *504:B I *C 52.44 21.16 *L 0.00317 *D NAND2X1

*CAP
1 *525:Y 0.000506460664
2 *504:B 0.000506460664

*RES
1 *504:B *525:Y 17.4252
*END

*D_NET *197 0.00404692

*CONN
*I *524:Y O *C 13.34 38.18 *L 0 *D AOI222X1
*I *515:A I *C 17.02 32.2 *L 0.00303 *D CLKINVX1

*CAP
1 *524:Y 0.00202345844
2 *515:A 0.00202345844

*RES
1 *515:A *524:Y 24.6483
*END

*D_NET *198 0.00509977

*CONN
*I *522:Y O *C 23 23.46 *L 0 *D INVX1
*I *497:D I *C 13.8 23 *L 0.00181 *D DFFRX1

*CAP
1 *522:Y 0.00234746938
2 *497:D 0.00234746938
3 *497:D *526:A0 0.000404834766

*RES
1 *497:D *522:Y 24.2312
*END

*D_NET *199 0.00278306

*CONN
*I *521:Y O *C 23 21.62 *L 0 *D INVX1
*I *484:D I *C 13.8 22.08 *L 0.00181 *D DFFRX1

*CAP
1 *521:Y 0.00139153
2 *484:D 0.00139153

*RES
1 *484:D *521:Y 17.5445
*END

*D_NET *200 0.0010339

*CONN
*I *520:Y O *C 15.18 13.34 *L 0 *D INVX1
*I *491:D I *C 13.8 14.72 *L 0.00181 *D DFFRX1

*CAP
1 *520:Y 0.000516951094
2 *491:D 0.000516951094

*RES
1 *491:D *520:Y 23.4029
*END

*D_NET *201 0.00107205

*CONN
*I *519:Y O *C 25.3 13.34 *L 0 *D INVX1
*I *485:D I *C 23 14.72 *L 0.00181 *D DFFRX1

*CAP
1 *519:Y 0.00053602457
2 *485:D 0.00053602457

*RES
1 *485:D *519:Y 24.7312
*END

*D_NET *202 0.00141203

*CONN
*I *518:Y O *C 17.48 56.58 *L 0 *D CLKINVX1
*I *481:D I *C 15.18 55.2 *L 0.00181 *D DFFRX1

*CAP
1 *518:Y 0.000706017031
2 *481:D 0.000706017031

*RES
1 *481:D *518:Y 24.2566
*END

*D_NET *203 0.00271428

*CONN
*I *517:Y O *C 24.38 48.3 *L 0 *D CLKINVX1
*I *496:D I *C 15.18 47.84 *L 0.00181 *D DFFRX1

*CAP
1 *517:Y 7.31842e-05
2 *496:D 0.00128395
3 *203:2 0.00135713813

*RES
1 *496:D *203:2 13.8760805
2 *203:2 *517:Y 5.04155
*END

*D_NET *204 0.0006181

*CONN
*I *516:Y O *C 15.18 46.46 *L 0 *D CLKINVX1
*I *495:D I *C 16.56 46.92 *L 0.00181 *D DFFRX1

*CAP
1 *516:Y 0.000309050078
2 *495:D 0.000309050078

*RES
1 *495:D *516:Y 16.3034
*END

*D_NET *205 0.00173354

*CONN
*I *515:Y O *C 17.48 31.74 *L 0 *D CLKINVX1
*I *482:D I *C 15.64 38.64 *L 0.00181 *D DFFRX1

*CAP
1 *515:Y 0.000508424
2 *482:D 0.000358347
3 *205:2 0.000866770781

*RES
1 *482:D *205:2 11.8027925
2 *205:2 *515:Y 10.5682
*END

*D_NET *206 0.00216568

*CONN
*I *514:Y O *C 23.92 73.14 *L 0 *D OAI21X1
*I *498:D I *C 20.7 80.04 *L 0.00181 *D DFFRX1

*CAP
1 *514:Y 0.00108283758
2 *498:D 0.00108283758

*RES
1 *498:D *514:Y 29.4294
*END

*D_NET *207 0.00636804

*CONN
*I *563:Y O *C 40.94 73.14 *L 0 *D AOI211X1
*I *513:A1 I *C 54.74 79.12 *L 0.00314 *D OAI21X1
*I *460:A0 I *C 54.28 73.6 *L 0.00297 *D OAI22X1

*CAP
1 *513:A1 0.000525531
2 *563:Y 0.00199241
3 *460:A0 1.307e-06
4 *207:3 0.00251924984
5 *207:3 *334:20 0.000466406328
6 *207:3 *559:B 0.000472366797
7 *207:3 *506:A0 0.000390768047

*RES
1 *460:A0 *207:3 4.50375
2 *207:3 *563:Y 20.2080002
3 *513:A1 *207:3 16.1242
*END

*D_NET *208 0.000760078

*CONN
*I *513:Y O *C 55.66 79.58 *L 0 *D OAI21X1
*I *486:B I *C 57.04 79.12 *L 0.00317 *D NAND2X1

*CAP
1 *513:Y 0.000380039219
2 *486:B 0.000380039219

*RES
1 *486:B *513:Y 16.4571
*END

*D_NET *209 0.0046525

*CONN
*I *512:Y O *C 26.22 73.14 *L 0 *D OAI21X1
*I *488:D I *C 21.16 71.76 *L 0.00181 *D DFFRX1

*CAP
1 *512:Y 0.00232625
2 *488:D 0.00232625

*RES
1 *488:D *512:Y 24.84
*END

*D_NET *210 0.0034579

*CONN
*I *511:Y O *C 25.3 54.74 *L 0 *D OAI21X1
*I *499:D I *C 21.16 56.12 *L 0.00181 *D DFFRX1

*CAP
1 *511:Y 0.00172895188
2 *499:D 0.00172895188

*RES
1 *499:D *511:Y 24.1069
*END

*D_NET *211 0.00293469

*CONN
*I *510:Y O *C 15.18 79.58 *L 0 *D CLKINVX1
*I *483:D I *C 13.8 72.68 *L 0.00181 *D DFFRX1

*CAP
1 *510:Y 0.00146734719
2 *483:D 0.00146734719

*RES
1 *483:D *510:Y 24.8045
*END

*D_NET *212 0.000755906

*CONN
*I *509:Y O *C 15.18 40.02 *L 0 *D CLKINVX1
*I *493:D I *C 16.56 39.56 *L 0.00181 *D DFFRX1

*CAP
1 *509:Y 0.000377953047
2 *493:D 0.000377953047

*RES
1 *493:D *509:Y 16.5604
*END

*D_NET *213 0.00276423

*CONN
*I *508:Y O *C 17.94 64.86 *L 0 *D CLKINVX1
*I *492:D I *C 11.96 71.76 *L 0.00181 *D DFFRX1

*CAP
1 *508:Y 0.000614764
2 *492:D 0.000767348
3 *213:2 0.0013821125

*RES
1 *492:D *213:2 12.4207735
2 *213:2 *508:Y 10.4076
*END

*D_NET *214 0.00148344

*CONN
*I *507:Y O *C 18.86 31.74 *L 0 *D CLKINVX1
*I *494:D I *C 16.1 30.36 *L 0.00181 *D DFFRX1

*CAP
1 *507:Y 0.000741720234
2 *494:D 0.000741720234

*RES
1 *494:D *507:Y 23.5057
*END

*D_NET *215 0.00215805

*CONN
*I *558:Y O *C 45.54 77.28 *L 0 *D NAND2X1
*I *506:B0 I *C 40.94 79.12 *L 0.00315 *D OAI21X1
*I *459:A0 I *C 42.32 79.58 *L 0.00299 *D AOI22X1

*CAP
1 *558:Y 0.000119918
2 *459:A0 0.000174946
3 *506:B0 0.000257618
4 *215:3 0.000646468
5 *215:4 0.000959098359

*RES
1 *506:B0 *215:4 8.56251
2 *215:4 *215:3 3.9699
3 *459:A0 *215:4 8.80861282
4 *215:3 *558:Y 5.30928
*END

*D_NET *216 0.00468457

*CONN
*I *565:Y O *C 34.5 73.14 *L 0 *D AND2X1
*I *506:A1 I *C 40.48 79.12 *L 0.00314 *D OAI21X1
*I *467:B0 I *C 43.24 74.06 *L 0.00309 *D OAI22X1

*CAP
1 *467:B0 0.000649378
2 *506:A1 0.000527858
3 *565:Y 0.00116505
4 *216:3 0.00234228375

*RES
1 *216:3 *565:Y 15.1560307
2 *506:A1 *216:3 14.5758
3 *467:B0 *216:3 13.0203
*END

*D_NET *217 0.00133395

*CONN
*I *506:Y O *C 41.4 79.58 *L 0 *D OAI21X1
*I *487:B I *C 38.64 79.12 *L 0.00317 *D NAND2X1

*CAP
1 *506:Y 5.91918e-05
2 *487:B 0.000607784
3 *217:2 0.000666975938

*RES
1 *487:B *217:2 12.7153397
2 *217:2 *506:Y 4.88971
*END

*D_NET *218 0.00382412

*CONN
*I *505:Y O *C 31.28 63.02 *L 0 *D OAI21X1
*I *500:D I *C 21.16 63.48 *L 0.00181 *D DFFRX1

*CAP
1 *505:Y 0.000214641
2 *500:D 0.000240154
3 *218:2 0.00167191
4 *218:3 0.00169742109

*RES
1 *218:3 *218:2 8.56804848
2 *500:D *218:3 6.71118
3 *218:2 *505:Y 6.30027
*END

*D_NET *219 0.00638855

*CONN
*I *576:Y O *C 47.84 25.76 *L 0 *D NAND2X1
*I *504:A I *C 51.98 21.16 *L 0.00306 *D NAND2X1
*I *469:B0 I *C 55.66 21.16 *L 0.00308 *D AOI22X1

*CAP
1 *576:Y 0.00239564
2 *469:B0 3.70643e-06
3 *504:A 0.000425118
4 *219:3 0.00282442563
5 *504:A *267:4 0.00021672248
6 *219:3 *230:7 0.000166773789
7 *219:3 *476:B0 0.000356197344

*RES
1 *504:A *219:3 12.068
2 *469:B0 *219:3 4.50893
3 *219:3 *576:Y 21.6101418
*END

*D_NET *220 0.00273919

*CONN
*I *575:Y O *C 42.32 25.76 *L 0 *D NAND2X1
*I *503:A I *C 39.1 29.44 *L 0.00306 *D NAND2X1
*I *470:B0 I *C 42.78 29.44 *L 0.00308 *D AOI22X1

*CAP
1 *470:B0 0.000434567
2 *575:Y 0.000826773
3 *503:A 0.000108234
4 *220:3 0.00136959547

*RES
1 *503:A *220:3 8.08209
2 *220:3 *575:Y 18.419384
3 *470:B0 *220:3 8.51464
*END

*D_NET *221 0.00802493

*CONN
*I *539:Y O *C 79.12 40.02 *L 0 *D MX4X1
*I *502:S1 I *C 72.68 23.46 *L 0.00347 *D MX4X1
*I *501:A I *C 89.7 38.18 *L 0.00178 *D MX2X1

*CAP
1 *501:A 0.00106554
2 *539:Y 0.000204657
3 *502:S1 0.00246344
4 *221:3 0.000290822
5 *221:4 0.00361514094
6 *502:S1 *502:A 0.000163316729
7 *502:S1 *234:8 0.000221967695

*RES
1 *502:S1 *221:4 18.171072
2 *221:3 *539:Y 6.46119
3 *221:4 *221:3 3.51715
4 *501:A *221:4 9.94119
*END

*D_NET *222 0.00536251

*CONN
*I *502:Y O *C 75.44 23.46 *L 0 *D MX4X1
*I *477:A I *C 89.7 29.9 *L 0.00178 *D MX2X1

*CAP
1 *502:Y 0.00172096484
2 *477:A 0.00172096484
3 *477:A *2:62 0.000255048
4 *502:Y *466:RN 0.000255048562
5 *477:A *462:A 0.000451683984
6 *477:A *234:6 0.000958800313

*RES
1 *477:A *502:Y 30.9601
*END

*D_NET *223 0.0165137

*CONN
*I *610:Y O *C 74.98 67.16 *L 0 *D NAND2X1
*I *607:A I *C 90.16 32.2 *L 0.00303 *D CLKINVX1
*I *596:B I *C 91.54 54.28 *L 0.00317 *D NAND2X1
*I *591:S0 I *C 85.1 61.64 *L 0.00375 *D MX2X1
*I *584:A1 I *C 80.04 54.28 *L 0.00314 *D OAI21X1
*I *570:S0 I *C 86.94 45.08 *L 0.00375 *D MX2X1
*I *538:S0 I *C 83.26 45.08 *L 0.00375 *D MX2X1
*I *501:S0 I *C 89.7 36.8 *L 0.00375 *D MX2X1
*I *477:S0 I *C 89.7 28.52 *L 0.00375 *D MX2X1

*CAP
1 *596:B 0.000655025
2 *607:A 0.00017528
3 *501:S0 2.43497e-05
4 *477:S0 0.00027398
5 *570:S0 1.15862e-05
6 *591:S0 0.000448765
7 *538:S0 0.000117287
8 *610:Y 0.00218571
9 *584:A1 0.00017051
10 *223:9 0.00112176
11 *223:10 0.000736748
12 *223:11 0.000965065
13 *223:12 0.00106953
14 *223:13 0.00146104
15 *223:14 0.000512149
16 *223:15 0.00200485
17 *223:16 0.00406044719
18 *223:11 *2:54 0.000259817
19 *223:9 *572:RN 0.000259816281

*RES
1 *584:A1 *223:16 11.5106
2 *223:16 *610:Y 14.2865
3 *538:S0 *223:15 8.16579
4 *223:15 *223:16 5.57489
5 *223:14 *223:13 3.53752
6 *591:S0 *223:14 10.5145
7 *223:12 *223:15 0.297763
8 *223:13 *223:12 14.8736238
9 *570:S0 *223:11 4.54202
10 *223:11 *223:12 3.74859
11 *477:S0 *223:10 7.45202
12 *223:10 *223:9 3.90632
13 *501:S0 *223:9 4.58174
14 *223:9 *223:11 14.3301
15 *607:A *223:10 11.5789
16 *596:B *223:13 9.0062
*END

*D_NET *224 0.00295877

*CONN
*I *501:Y O *C 91.54 38.18 *L 0 *D MX2X1
*I *479:D I *C 80.5 38.64 *L 0.00181 *D DFFRX1

*CAP
1 *501:Y 6.44939e-05
2 *479:D 0.00141489
3 *224:2 0.00147938734

*RES
1 *479:D *224:2 13.2440329
2 *224:2 *501:Y 4.81818
*END

*D_NET *225 0.0019716

*CONN
*I *503:Y O *C 39.56 27.6 *L 0 *D NAND2X1
*I *490:A I *C 43.7 28.98 *L 0.0058 *D CLKINVX2
*I *470:B1 I *C 41.86 29.44 *L 0.00319 *D AOI22X1

*CAP
1 *490:A 0.000377593
2 *470:B1 0.000188526
3 *503:Y 0.000419682
4 *225:3 0.00098580125

*RES
1 *225:3 *503:Y 8.83150101
2 *470:B1 *225:3 8.70146
3 *490:A *225:3 8.52722
*END

*D_NET *226 0.00304461

*CONN
*I *553:Y O *C 36.34 77.28 *L 0 *D NAND2X1
*I *487:A I *C 38.18 79.12 *L 0.00306 *D NAND2X1
*I *459:B0 I *C 44.16 79.12 *L 0.00308 *D AOI22X1

*CAP
1 *459:B0 0.000909688
2 *553:Y 0.000470872
3 *487:A 0.000141742
4 *226:3 0.00152230266

*RES
1 *487:A *226:3 8.27294
2 *226:3 *553:Y 10.1523399
3 *459:B0 *226:3 9.15796
*END

*D_NET *227 0.0032984

*CONN
*I *477:Y O *C 91.54 29.9 *L 0 *D MX2X1
*I *466:D I *C 80.5 30.36 *L 0.00181 *D DFFRX1

*CAP
1 *477:Y 0.00164920094
2 *466:D 0.00164920094

*RES
1 *466:D *477:Y 18.1886
*END

*D_NET *228 0.00268459

*CONN
*I *504:Y O *C 52.44 19.32 *L 0 *D NAND2X1
*I *489:A I *C 56.58 20.7 *L 0.0058 *D CLKINVX2
*I *476:A1 I *C 53.82 24.38 *L 0.00308 *D OAI22X1
*I *469:B1 I *C 54.74 21.16 *L 0.00319 *D AOI22X1

*CAP
1 *489:A 0.000348747
2 *469:B1 0.000197236
3 *476:A1 0.000196519
4 *504:Y 0.000432249
5 *228:4 0.000713533
6 *228:5 0.000796318047

*RES
1 *228:5 *504:Y 14.0980482
2 *476:A1 *228:5 6.11304
3 *469:B1 *228:4 8.82655
4 *228:4 *228:5 3.60948
5 *489:A *228:4 9.47363
*END

*D_NET *229 0.00300419

*CONN
*I *475:Y O *C 68.54 31.74 *L 0 *D MX2X1
*I *451:D I *C 62.1 30.36 *L 0.00181 *D DFFRX1

*CAP
1 *475:Y 0.00027115
2 *451:D 0.00123095
3 *229:2 0.00150209672

*RES
1 *451:D *229:2 13.4526491
2 *229:2 *475:Y 6.69328
*END

*D_NET *230 0.00771761

*CONN
*I *489:Y O *C 57.04 21.62 *L 0 *D CLKINVX2
*I *476:B1 I *C 54.28 24.38 *L 0.00313 *D OAI22X1
*I *475:A I *C 66.7 31.74 *L 0.00178 *D MX2X1
*I *474:B I *C 65.78 15.18 *L 0.00181 *D MX2X1
*I *469:A1 I *C 54.28 21.16 *L 0.00311 *D AOI22X1

*CAP
1 *475:A 0.0010864
2 *474:B 0.000783127
3 *489:Y 6.99187e-06
4 *476:B1 0.000313836
5 *469:A1 4.60931e-05
6 *230:5 0.00249028203
7 *230:6 0.00110661
8 *230:7 0.000838834
9 *230:7 *219:3 0.000166773789
10 *230:5 *2:66 0.000279844
11 *475:A *2:71 0.000279843617
12 *475:A *463:S0 0.000319004063

*RES
1 *469:A1 *230:7 4.5817
2 *230:7 *230:6 9.49526
3 *476:B1 *230:7 7.17086
4 *230:6 *489:Y 4.51643
5 *230:5 *230:6 4.61854
6 *474:B *230:5 20.9163
7 *475:A *230:5 23.8989601
*END

*D_NET *231 0.00202179

*CONN
*I *474:Y O *C 66.24 15.18 *L 0 *D MX2X1
*I *450:D I *C 62.1 22.08 *L 0.00181 *D DFFRX1

*CAP
1 *450:D 0.000466645
2 *474:Y 0.00054425
3 *231:2 0.00101089477

*RES
1 *231:2 *474:Y 12.1707916
2 *450:D *231:2 10.595
*END

*D_NET *232 0.00282824

*CONN
*I *473:Y O *C 79.58 31.74 *L 0 *D MX2X1
*I *448:D I *C 71.3 38.64 *L 0.00181 *D DFFRX1

*CAP
1 *473:Y 0.000484644
2 *448:D 0.000929476
3 *232:2 0.00141412016

*RES
1 *448:D *232:2 12.9641294
2 *232:2 *473:Y 10.0236
*END

*D_NET *233 0.000783563

*CONN
*I *472:Y O *C 82.34 23.46 *L 0 *D MX2X1
*I *447:D I *C 84.18 23 *L 0.00181 *D DFFRX1

*CAP
1 *447:D 0.000335754
2 *472:Y 5.60277e-05
3 *233:2 0.000391781328

*RES
1 *233:2 *472:Y 4.74682
2 *447:D *233:2 11.7822886
*END

*D_NET *234 0.0238188

*CONN
*I *490:Y O *C 44.16 29.9 *L 0 *D CLKINVX2
*I *473:A I *C 77.74 31.74 *L 0.00178 *D MX2X1
*I *472:B I *C 81.88 23.46 *L 0.00181 *D MX2X1
*I *471:S0 I *C 39.56 36.8 *L 0.00375 *D MX2X1
*I *470:A1 I *C 41.4 29.44 *L 0.00311 *D AOI22X1
*I *468:B I *C 80.5 71.3 *L 0.00181 *D MX2X1

*CAP
1 *472:B 0.000449039
2 *468:B 3.58701e-05
3 *473:A 0.000267097
4 *490:Y 1.9979e-05
5 *470:A1 0.000256791
6 *471:S0 0.000900553
7 *234:6 0.000839177
8 *234:7 0.00256186
9 *234:8 0.00377327219
10 *234:9 0.00178855
11 *234:10 0.00364488
12 *234:11 0.00375341
13 *234:12 0.00166419
14 *470:A1 *264:4 0.000517129883
15 *234:11 *2:76 0.000297666
16 *234:10 *451:RN 0.000297665211
17 *234:10 *597:B0 0.000622034063
18 *234:8 *1:62 0.000359416
19 *234:7 *1:60 0.000359416031
20 *234:8 *502:S1 0.000221967695
21 *234:7 *131:5 0.000230073926
22 *234:6 *477:A 0.000958800313

*RES
1 *471:S0 *234:12 18.2267
2 *470:A1 *234:12 11.7436
3 *234:12 *234:11 9.80595
4 *234:11 *490:Y 4.5601
5 *234:10 *234:11 8.72632
6 *473:A *234:10 9.66587
7 *234:9 *234:10 3.60298
8 *234:8 *234:9 8.29389
9 *468:B *234:7 4.58158
10 *234:7 *234:8 31.9865952
11 *472:B *234:6 10.8807
12 *234:6 *234:9 7.56861
*END

*D_NET *235 0.000639915

*CONN
*I *468:Y O *C 80.96 71.3 *L 0 *D MX2X1
*I *449:D I *C 82.8 71.76 *L 0.00181 *D DFFRX1

*CAP
1 *468:Y 0.000319957734
2 *449:D 0.000319957734

*RES
1 *449:D *468:Y 16.4297
*END

*D_NET *236 0.00324237

*CONN
*I *487:Y O *C 38.64 77.28 *L 0 *D NAND2X1
*I *480:A I *C 41.86 70.84 *L 0.00583 *D INVX2
*I *467:A1 I *C 42.32 74.06 *L 0.00308 *D OAI22X1
*I *459:B1 I *C 43.24 79.12 *L 0.00319 *D AOI22X1

*CAP
1 *459:B1 0.000365973
2 *487:Y 0.000508554
3 *467:A1 4.13102e-05
4 *480:A 0.00046163
5 *236:4 0.00111824273
6 *236:5 0.000746673

*RES
1 *480:A *236:5 13.9366388
2 *236:5 *236:4 2.51338
3 *467:A1 *236:5 4.58168
4 *236:4 *487:Y 12.068
5 *459:B1 *236:4 12.7664
*END

*D_NET *237 0.00186944

*CONN
*I *465:Y O *C 76.82 15.18 *L 0 *D MX2X1
*I *436:D I *C 71.76 22.08 *L 0.00181 *D DFFRX1

*CAP
1 *436:D 0.000508131
2 *465:Y 0.00042659
3 *237:2 0.000934720078

*RES
1 *237:2 *465:Y 12.3149157
2 *436:D *237:2 10.5952
*END

*D_NET *238 0.0020088

*CONN
*I *464:Y O *C 64.86 31.74 *L 0 *D MX2X1
*I *438:D I *C 62.1 38.64 *L 0.00181 *D DFFRX1

*CAP
1 *464:Y 0.000630854
2 *438:D 0.000373544
3 *238:2 0.00100439789

*RES
1 *438:D *238:2 11.9469166
2 *238:2 *464:Y 10.5682
*END

*D_NET *239 0.0027436

*CONN
*I *463:Y O *C 67.62 23.46 *L 0 *D MX2X1
*I *437:D I *C 56.58 23 *L 0.00181 *D DFFRX1

*CAP
1 *463:Y 4.59465e-05
2 *437:D 0.00132585
3 *239:2 0.00137180094

*RES
1 *437:D *239:2 13.2236481
2 *239:2 *463:Y 4.7468
*END

*D_NET *240 0.0026195

*CONN
*I *462:Y O *C 78.66 23.46 *L 0 *D MX2X1
*I *439:D I *C 71.3 30.36 *L 0.00181 *D DFFRX1

*CAP
1 *462:Y 0.000413061
2 *439:D 0.000896691
3 *240:2 0.0013097525

*RES
1 *439:D *240:2 14.1414404
2 *240:2 *462:Y 8.70224
*END

*D_NET *241 0.00284755

*CONN
*I *486:Y O *C 57.04 77.28 *L 0 *D NAND2X1
*I *478:A I *C 59.8 74.06 *L 0.0058 *D CLKINVX2
*I *461:B1 I *C 57.96 74.06 *L 0.00313 *D OAI22X1
*I *460:B1 I *C 55.2 74.06 *L 0.00313 *D OAI22X1

*CAP
1 *478:A 0.000346963
2 *461:B1 4.63131e-05
3 *486:Y 0.000198129
4 *460:B1 0.000561832
5 *241:4 0.000617501
6 *241:5 0.000355537
7 *241:6 0.000721275781

*RES
1 *460:B1 *241:6 12.2734308
2 *241:5 *486:Y 6.50565
3 *241:6 *241:4 3.85193
4 *461:B1 *241:6 4.58175
5 *241:4 *241:5 3.60959
6 *478:A *241:4 8.67021
*END

*D_NET *242 0.0115983

*CONN
*I *478:Y O *C 60.26 73.14 *L 0 *D CLKINVX2
*I *464:A I *C 63.02 31.74 *L 0.00178 *D MX2X1
*I *463:B I *C 67.16 23.46 *L 0.00181 *D MX2X1
*I *461:A1 I *C 57.5 74.06 *L 0.00308 *D OAI22X1
*I *460:A1 I *C 54.74 74.06 *L 0.00308 *D OAI22X1

*CAP
1 *463:B 0.00135066
2 *464:A 2.38236e-05
3 *478:Y 2.48387e-05
4 *461:A1 0.000118999
5 *460:A1 0.000428407
6 *242:5 0.00289836
7 *242:6 0.00391298531
8 *242:7 0.000838186
9 *242:8 0.00100083
10 *242:6 *2:81 0.000202
11 *463:B *2:71 0.000202000273
12 *242:6 *595:B 0.000597357734

*RES
1 *460:A1 *242:8 8.41951
2 *242:8 *242:7 4.5092
3 *461:A1 *242:8 8.0389
4 *242:7 *478:Y 4.58159
5 *242:6 *242:5 35.9419594
6 *464:A *242:6 4.58159
7 *242:5 *242:7 7.82117
8 *463:B *242:6 19.1583
*END

*D_NET *243 0.0213872

*CONN
*I *480:Y O *C 42.32 71.3 *L 0 *D INVX2
*I *467:B1 I *C 42.78 74.06 *L 0.00313 *D OAI22X1
*I *465:B I *C 76.36 15.18 *L 0.00181 *D MX2X1
*I *462:A I *C 76.82 23.46 *L 0.00178 *D MX2X1
*I *459:A1 I *C 42.78 79.12 *L 0.00311 *D AOI22X1
*I *457:B I *C 82.34 79.58 *L 0.00181 *D MX2X1

*CAP
1 *457:B 0.000493976
2 *462:A 0.000119436
3 *465:B 0.000568537
4 *459:A1 6.24232e-06
5 *467:B1 4.47366e-05
6 *480:Y 0.000306775
7 *243:6 0.00454545031
8 *243:7 0.00370544
9 *243:8 0.00432426
10 *243:9 0.00435305
11 *243:10 0.000716064
12 *243:9 *247:3 0.000343799609
13 *243:8 *315:11 0.000486373906
14 *243:8 *389:A 0.000567674648
15 *462:A *477:A 0.000451683984
16 *457:B *457:S0 0.000353574766

*RES
1 *243:10 *480:Y 13.9111
2 *467:B1 *243:10 4.58171
3 *459:A1 *243:9 4.51184
4 *243:9 *243:10 4.1475
5 *465:B *243:8 11.7379
6 *243:8 *243:7 49.2321243
7 *243:7 *243:6 3.51722
8 *243:6 *243:9 8.7262
9 *462:A *243:8 11.5688
10 *457:B *243:6 15.8275
*END

*D_NET *244 0.000765443

*CONN
*I *458:Y O *C 53.36 40.02 *L 0 *D CLKINVX1
*I *442:B0 I *C 51.52 40.48 *L 0.00314 *D AOI21X1

*CAP
1 *458:Y 6.38949e-05
2 *442:B0 0.000318826
3 *244:2 0.000382721406

*RES
1 *442:B0 *244:2 11.8001699
2 *244:2 *458:Y 4.8093
*END

*D_NET *245 0.00971723

*CONN
*I *606:Y O *C 76.36 71.3 *L 0 *D NOR2X1
*I *600:A I *C 66.24 70.84 *L 0.00303 *D CLKINVX1
*I *595:B I *C 61.64 73.6 *L 0.00181 *D OR2X2
*I *574:A I *C 63.48 62.1 *L 0.00186 *D OR3X1
*I *468:S0 I *C 79.12 69.92 *L 0.00375 *D MX2X1
*I *457:S0 I *C 80.96 78.2 *L 0.00375 *D MX2X1
*I *389:S0 I *C 76.82 66.24 *L 0.00375 *D MX2X1

*CAP
1 *457:S0 0.000674013
2 *468:S0 9.82804e-05
3 *389:S0 0.000529117
4 *606:Y 0.000104178
5 *600:A 0.000125701
6 *574:A 0.000551163
7 *595:B 0.000173797
8 *245:7 0.000944676
9 *245:8 0.000863849
10 *245:9 0.00124239
11 *245:10 0.00142622
12 *245:11 0.000636211
13 *245:12 0.000702609
14 *245:13 0.000466702
15 *595:B *242:6 0.000597357734
16 *245:10 *606:A 0.000227332109
17 *457:S0 *457:B 0.000353574766

*RES
1 *245:13 *245:12 3.75359
2 *595:B *245:13 6.48778
3 *574:A *245:11 12.3273
4 *245:11 *245:12 3.5171
5 *245:12 *245:10 0.380773
6 *600:A *245:10 8.08228
7 *245:10 *245:9 1.53363
8 *245:9 *606:Y 8.05653
9 *389:S0 *245:8 19.1808929
10 *245:8 *245:9 0.164485
11 *468:S0 *245:7 5.34487
12 *245:7 *245:8 3.68159
13 *457:S0 *245:7 18.0313
*END

*D_NET *246 0.00349677

*CONN
*I *457:Y O *C 82.8 79.58 *L 0 *D MX2X1
*I *440:D I *C 79.12 72.68 *L 0.00181 *D DFFRX1

*CAP
1 *457:Y 0.00174838297
2 *440:D 0.00174838297

*RES
1 *440:D *457:Y 24.7552
*END

*D_NET *247 0.00501722

*CONN
*I *459:Y O *C 43.24 79.58 *L 0 *D AOI22X1
*I *456:A I *C 40.02 57.04 *L 0.00303 *D CLKINVX1
*I *416:A1 I *C 41.86 57.04 *L 0.0031 *D OAI211X1

*CAP
1 *459:Y 0.00139035
2 *416:A1 0.000234002
3 *456:A 0.000291411
4 *247:3 0.00149714953
5 *247:4 0.000632236
6 *456:A *128:11 0.000135242939
7 *247:4 *333:10 0.000493049609
8 *247:3 *243:9 0.000343799609

*RES
1 *456:A *247:4 9.70598
2 *416:A1 *247:4 9.4692
3 *247:4 *247:3 3.68173
4 *247:3 *459:Y 22.7199783
*END

*D_NET *248 0.0035038

*CONN
*I *471:Y O *C 41.4 38.18 *L 0 *D MX2X1
*I *454:B I *C 40.02 40.48 *L 0.00317 *D NAND2X1
*I *453:B I *C 37.26 40.48 *L 0.00182 *D OR2X1
*I *441:A1 I *C 43.7 40.48 *L 0.00314 *D OAI21X1

*CAP
1 *441:A1 0.000814917
2 *471:Y 0.00014943
3 *454:B 0.000143952
4 *453:B 0.000417946
5 *248:4 0.000226677
6 *248:5 0.00104057789
7 *248:6 0.000710311

*RES
1 *453:B *248:6 8.59098
2 *248:6 *248:5 0.164622
3 *454:B *248:6 8.21044
4 *248:4 *471:Y 5.90761
5 *248:5 *248:4 3.51723
6 *441:A1 *248:5 17.5998211
*END

*D_NET *249 0.0063318

*CONN
*I *476:Y O *C 55.2 23.92 *L 0 *D OAI22X1
*I *455:B I *C 46.46 40.48 *L 0.00182 *D OR2X1
*I *452:B I *C 49.22 40.48 *L 0.00317 *D NAND2X1
*I *442:A1 I *C 51.06 40.94 *L 0.00305 *D AOI21X1

*CAP
1 *476:Y 7.37184e-05
2 *442:A1 0.000224121
3 *452:B 2.46826e-05
4 *455:B 0.000225259
5 *249:4 0.00196307891
6 *249:5 0.00195074
7 *249:6 0.000689257
8 *249:7 0.000653671
9 *452:B *452:A 0.000213146211
10 *442:A1 *321:5 0.000314116484

*RES
1 *455:B *249:7 6.5771
2 *249:7 *249:6 8.71849
3 *249:5 *249:4 21.6470947
4 *452:B *249:5 4.58171
5 *249:6 *249:5 0.361688
6 *442:A1 *249:6 11.8386
7 *249:4 *476:Y 5.02366
*END

*D_NET *250 0.00536478

*CONN
*I *460:Y O *C 56.12 73.6 *L 0 *D OAI22X1
*I *446:A I *C 53.36 53.82 *L 0.00182 *D AND2X1
*I *445:B I *C 56.12 54.28 *L 0.00312 *D NOR2X1
*I *435:A1 I *C 51.52 53.82 *L 0.00305 *D AOI21X1

*CAP
1 *460:Y 0.00118769
2 *445:B 9.35877e-05
3 *446:A 0.000198596
4 *435:A1 0.000219038
5 *250:4 0.00145614141
6 *250:5 0.000592522
7 *250:5 *421:A0 0.000683188438
8 *250:5 *306:6 0.00045681
9 *250:4 *1:86 0.000238597
10 *460:Y *1:72 0.000238597805

*RES
1 *435:A1 *250:5 9.31292
2 *446:A *250:5 9.07661
3 *250:5 *250:4 3.89776
4 *445:B *250:4 5.1486
5 *250:4 *460:Y 20.6485977
*END

*D_NET *251 0.0115932

*CONN
*I *614:Y O *C 47.84 52.44 *L 0 *D NAND2X1
*I *605:A I *C 45.54 48.76 *L 0.00583 *D INVX2
*I *455:A I *C 46.92 40.94 *L 0.00195 *D OR2X1
*I *454:A I *C 39.56 40.48 *L 0.00306 *D NAND2X1
*I *453:A I *C 37.72 40.94 *L 0.00195 *D OR2X1
*I *452:A I *C 48.76 40.48 *L 0.00306 *D NAND2X1
*I *446:B I *C 54.28 54.28 *L 0.00197 *D AND2X1
*I *445:A I *C 55.66 53.82 *L 0.00302 *D NOR2X1
*I *432:A0 I *C 40.02 54.74 *L 0.00295 *D AOI21X1

*CAP
1 *445:A 0.000178991
2 *446:B 0.000188881
3 *452:A 0.000224831
4 *614:Y 1.72934e-05
5 *455:A 2.12801e-05
6 *605:A 0.000134533
7 *432:A0 0.000789885
8 *454:A 0.000131305
9 *453:A 0.000164218
10 *251:9 0.000760683
11 *251:10 0.000760027
12 *251:11 0.000594619
13 *251:12 0.000769623
14 *251:13 0.00113105773
15 *251:14 0.000467714
16 *251:15 0.00068521
17 *432:A0 *444:B 0.000235080723
18 *452:A *321:5 0.00135672094
19 *452:A *452:B 0.000213146211
20 *251:9 *435:A0 0.00163042547
21 *445:A *421:A0 0.000576257695
22 *445:A *435:B0 0.000561475742

*RES
1 *453:A *251:15 8.32129
2 *454:A *251:15 8.46035
3 *251:15 *251:14 4.61858
4 *432:A0 *251:13 14.2842531
5 *605:A *251:12 11.6018
6 *251:12 *251:13 2.93745
7 *251:13 *251:11 7.27072
8 *455:A *251:14 4.56758
9 *251:14 *251:10 3.73148
10 *251:10 *251:12 9.27029
11 *251:11 *614:Y 4.55232
12 *452:A *251:10 9.24152
13 *251:9 *251:11 4.50568
14 *446:B *251:9 9.0944
15 *445:A *251:9 8.8481
*END

*D_NET *252 0.00733626

*CONN
*I *467:Y O *C 43.7 73.6 *L 0 *D OAI22X1
*I *444:B I *C 44.16 54.28 *L 0.00317 *D NAND2X1
*I *443:B I *C 46 54.28 *L 0.00312 *D NOR2X1
*I *432:A1 I *C 40.48 53.82 *L 0.00305 *D AOI21X1

*CAP
1 *467:Y 0.00158769
2 *443:B 0.000158837
3 *444:B 0.000245579
4 *432:A1 0.000694916
5 *252:4 0.00201225281
6 *252:5 0.00120622
7 *252:5 *253:8 0.000206708906
8 *252:4 *2:87 0.000206113
9 *467:Y *2:86 0.000206112742
10 *252:4 *369:A0 0.000344157227
11 *252:4 *153:4 0.000232577324
12 *444:B *432:A0 0.000235080723

*RES
1 *432:A1 *252:5 9.75324
2 *252:5 *252:4 5.12944
3 *444:B *252:5 9.63901
4 *443:B *252:4 11.6098
5 *252:4 *467:Y 29.0170898
*END

*D_NET *253 0.00806606

*CONN
*I *605:Y O *C 46 48.3 *L 0 *D INVX2
*I *444:A I *C 43.7 54.28 *L 0.00306 *D NAND2X1
*I *443:A I *C 45.54 53.82 *L 0.00302 *D NOR2X1
*I *442:A0 I *C 50.6 40.02 *L 0.00295 *D AOI21X1
*I *441:A0 I *C 43.24 40.48 *L 0.00302 *D OAI21X1
*I *435:A0 I *C 51.06 54.74 *L 0.00295 *D AOI21X1

*CAP
1 *435:A0 0.000327349
2 *442:A0 0.000347967
3 *605:Y 0.000106506
4 *443:A 1.39982e-05
5 *444:A 0.00040745
6 *441:A0 0.000372237
7 *253:6 0.000906648
8 *253:7 0.000802927
9 *253:8 0.000561955
10 *253:9 0.00118523836
11 *253:8 *252:5 0.000206708906
12 *442:A0 *321:5 0.000696182266
13 *435:A0 *251:9 0.00163042547
14 *435:A0 *421:A0 0.000500440586

*RES
1 *441:A0 *253:9 12.0164
2 *444:A *253:8 11.8257
3 *443:A *253:8 4.54984
4 *253:8 *253:7 3.72187
5 *253:9 *253:6 6.75009
6 *253:6 *605:Y 11.6121
7 *253:7 *253:6 14.2682791
8 *442:A0 *253:9 12.3454
9 *435:A0 *253:7 9.55733
*END

*D_NET *254 0.00161314

*CONN
*I *444:Y O *C 44.16 52.44 *L 0 *D NAND2X1
*I *434:A I *C 42.32 54.28 *L 0.00303 *D CLKINVX1
*I *416:B0 I *C 42.32 57.04 *L 0.0031 *D OAI211X1

*CAP
1 *444:Y 0.000140132
2 *434:A 2.05622e-05
3 *416:B0 0.000259162
4 *254:3 0.000526847
5 *254:4 0.000666439531

*RES
1 *416:B0 *254:4 6.76025
2 *434:A *254:4 4.55491
3 *254:4 *254:3 7.27081299
4 *254:3 *444:Y 5.70218
*END

*D_NET *255 0.00175655

*CONN
*I *434:Y O *C 42.78 54.74 *L 0 *D CLKINVX1
*I *415:C0 I *C 38.64 54.28 *L 0.00313 *D AOI211X1

*CAP
1 *434:Y 6.08031e-05
2 *415:C0 0.000817471
3 *255:2 0.000878274453

*RES
1 *415:C0 *255:2 12.7798319
2 *255:2 *434:Y 4.73784
*END

*D_NET *256 0.00388873

*CONN
*I *443:Y O *C 46.46 54.74 *L 0 *D NOR2X1
*I *433:A I *C 44.16 57.04 *L 0.00303 *D CLKINVX1
*I *415:B0 I *C 38.18 53.82 *L 0.00309 *D AOI211X1

*CAP
1 *433:A 0.000390415
2 *443:Y 0.000484051
3 *415:B0 0.0010699
4 *256:3 0.00194436313

*RES
1 *415:B0 *256:3 14.2453909
2 *256:3 *443:Y 12.0037
3 *433:A *256:3 13.4813
*END

*D_NET *257 0.000795126

*CONN
*I *433:Y O *C 44.62 56.58 *L 0 *D CLKINVX1
*I *416:C0 I *C 42.78 57.04 *L 0.00312 *D OAI211X1

*CAP
1 *433:Y 3.72539e-05
2 *416:C0 0.000360309
3 *257:2 0.000397562969

*RES
1 *416:C0 *257:2 11.7772818
2 *257:2 *433:Y 4.72899
*END

*D_NET *258 0.00341094

*CONN
*I *456:Y O *C 40.48 56.58 *L 0 *D CLKINVX1
*I *432:B0 I *C 40.94 54.28 *L 0.00314 *D AOI21X1
*I *415:A1 I *C 37.26 53.82 *L 0.00301 *D AOI211X1

*CAP
1 *432:B0 0.00018149
2 *456:Y 0.000854621
3 *415:A1 0.000669357
4 *258:3 0.00170546766

*RES
1 *415:A1 *258:3 8.66373
2 *258:3 *456:Y 17.8644657
3 *432:B0 *258:3 8.54979
*END

*D_NET *259 0.00415206

*CONN
*I *441:Y O *C 44.62 40.02 *L 0 *D OAI21X1
*I *431:A I *C 36.8 48.76 *L 0.00303 *D CLKINVX1
*I *425:B I *C 38.18 48.76 *L 0.00182 *D OR2X1

*CAP
1 *441:Y 0.00166922
2 *425:B 0.000133333
3 *431:A 0.000273478
4 *259:3 0.00207602984

*RES
1 *431:A *259:3 8.31252
2 *425:B *259:3 8.14767
3 *259:3 *441:Y 23.79632
*END

*D_NET *260 0.000715375

*CONN
*I *431:Y O *C 37.26 48.3 *L 0 *D CLKINVX1
*I *417:B I *C 35.42 48.76 *L 0.00317 *D NAND2X1

*CAP
1 *431:Y 0.000357687461
2 *417:B 0.000357687461

*RES
1 *417:B *431:Y 16.3754
*END

*D_NET *261 0.00206399

*CONN
*I *442:Y O *C 51.98 40.02 *L 0 *D AOI21X1
*I *430:B I *C 53.36 46 *L 0.00317 *D NAND2X1
*I *424:B I *C 52.44 48.76 *L 0.00317 *D NAND2X1

*CAP
1 *430:B 0.000283482
2 *424:B 0.00023424
3 *442:Y 0.000514273
4 *261:3 0.00103199484

*RES
1 *261:3 *442:Y 16.6707039
2 *424:B *261:3 6.63969
3 *430:B *261:3 11.6483
*END

*D_NET *262 0.00220597

*CONN
*I *454:Y O *C 40.02 42.32 *L 0 *D NAND2X1
*I *429:C0 I *C 41.4 46 *L 0.00312 *D OAI211X1
*I *423:C0 I *C 38.64 46 *L 0.00312 *D OAI211X1

*CAP
1 *429:C0 0.000464672
2 *454:Y 0.00040627
3 *423:C0 0.000232042
4 *262:3 0.00110298398

*RES
1 *423:C0 *262:3 12.3194
2 *262:3 *454:Y 13.5017633
3 *429:C0 *262:3 12.6235
*END

*D_NET *263 0.00227904

*CONN
*I *453:Y O *C 38.64 40.02 *L 0 *D OR2X1
*I *429:B0 I *C 40.94 46 *L 0.0031 *D OAI211X1
*I *423:B0 I *C 38.18 46 *L 0.0031 *D OAI211X1

*CAP
1 *429:B0 0.000432728
2 *453:Y 0.000458359
3 *423:B0 0.000145795
4 *263:3 0.000560998
5 *263:4 0.000681161875

*RES
1 *423:B0 *263:4 8.25747
2 *263:3 *453:Y 9.16647911
3 *263:4 *263:3 3.51716
4 *429:B0 *263:4 8.54574
*END

*D_NET *264 0.00542092

*CONN
*I *470:Y O *C 41.86 29.9 *L 0 *D AOI22X1
*I *441:B0 I *C 44.16 40.48 *L 0.00315 *D OAI21X1
*I *429:A1 I *C 40.48 46 *L 0.0031 *D OAI211X1
*I *423:A1 I *C 37.72 46 *L 0.0031 *D OAI211X1

*CAP
1 *441:B0 0.000399942
2 *470:Y 0.000941098
3 *429:A1 0.000104354
4 *423:A1 0.000422704
5 *264:4 0.00192481281
6 *264:5 0.00111086
7 *264:4 *470:A1 0.000517129883

*RES
1 *423:A1 *264:5 8.4196
2 *429:A1 *264:5 8.03895
3 *264:5 *264:4 10.2804
4 *264:4 *470:Y 26.259304
5 *441:B0 *264:4 9.71421
*END

*D_NET *265 0.00293338

*CONN
*I *455:Y O *C 47.84 40.02 *L 0 *D OR2X1
*I *428:C0 I *C 48.76 46 *L 0.00312 *D OAI211X1
*I *426:C0 I *C 51.52 46 *L 0.00312 *D OAI211X1

*CAP
1 *426:C0 0.000701487
2 *455:Y 0.00071966
3 *428:C0 4.55439e-05
4 *265:3 0.00146669156

*RES
1 *428:C0 *265:3 4.58177
2 *265:3 *455:Y 16.6668892
3 *426:C0 *265:3 13.7555
*END

*D_NET *266 0.00197184

*CONN
*I *452:Y O *C 49.22 42.32 *L 0 *D NAND2X1
*I *428:B0 I *C 48.3 46 *L 0.0031 *D OAI211X1
*I *426:B0 I *C 51.06 46 *L 0.0031 *D OAI211X1

*CAP
1 *426:B0 0.000255164
2 *452:Y 0.000497346
3 *428:B0 0.00023341
4 *266:3 0.000985920391

*RES
1 *428:B0 *266:3 8.20344
2 *266:3 *452:Y 18.0361271
3 *426:B0 *266:3 8.20344
*END

*D_NET *267 0.00786573

*CONN
*I *469:Y O *C 54.74 21.62 *L 0 *D AOI22X1
*I *458:A I *C 52.9 40.48 *L 0.00303 *D CLKINVX1
*I *428:A1 I *C 47.84 46 *L 0.0031 *D OAI211X1
*I *426:A1 I *C 50.6 46 *L 0.0031 *D OAI211X1

*CAP
1 *458:A 1.48932e-05
2 *469:Y 0.00172771
3 *426:A1 0.000224336
4 *428:A1 0.000243125
5 *267:4 0.00323188313
6 *267:5 0.00195678
7 *267:5 *290:3 0.000250279902
8 *267:4 *504:A 0.00021672248

*RES
1 *428:A1 *267:5 8.24019
2 *267:5 *267:4 11.9703
3 *426:A1 *267:5 8.15875
4 *267:4 *469:Y 28.2382965
5 *458:A *267:4 4.52943
*END

*D_NET *268 0.00261474

*CONN
*I *432:Y O *C 41.4 54.74 *L 0 *D AOI21X1
*I *427:A I *C 34.04 54.28 *L 0.00303 *D CLKINVX1
*I *418:B I *C 35.88 54.28 *L 0.00317 *D NAND2X1

*CAP
1 *432:Y 0.000839999
2 *418:B 0.000139185
3 *427:A 0.000328184
4 *268:3 0.00130736828

*RES
1 *427:A *268:3 8.35767
2 *418:B *268:3 8.12116
3 *268:3 *432:Y 8.84687901
*END

*D_NET *269 0.00120902

*CONN
*I *427:Y O *C 34.5 54.74 *L 0 *D CLKINVX1
*I *413:B I *C 31.74 54.28 *L 0.00182 *D OR2X1

*CAP
1 *427:Y 8.06475e-05
2 *413:B 0.000523863
3 *269:2 0.000604510313

*RES
1 *413:B *269:2 11.9698048
2 *269:2 *427:Y 4.89853
*END

*D_NET *270 0.00264823

*CONN
*I *446:Y O *C 54.74 54.74 *L 0 *D AND2X1
*I *422:C0 I *C 58.88 54.28 *L 0.00313 *D AOI211X1
*I *421:C0 I *C 61.64 54.28 *L 0.00313 *D AOI211X1

*CAP
1 *421:C0 0.000480893
2 *446:Y 0.000720622
3 *422:C0 0.000122602
4 *270:3 0.00132411719

*RES
1 *422:C0 *270:3 8.07204
2 *270:3 *446:Y 9.01269913
3 *421:C0 *270:3 8.45271
*END

*D_NET *271 0.00201058

*CONN
*I *445:Y O *C 56.58 54.74 *L 0 *D NOR2X1
*I *422:B0 I *C 58.42 53.82 *L 0.00309 *D AOI211X1
*I *421:B0 I *C 61.18 53.82 *L 0.00309 *D AOI211X1

*CAP
1 *421:B0 0.00045711
2 *422:B0 0.000134821
3 *445:Y 0.000413361
4 *271:3 0.00100529195

*RES
1 *271:3 *445:Y 9.19699669
2 *422:B0 *271:3 8.13901
3 *421:B0 *271:3 8.5196
*END

*D_NET *272 0.00729215

*CONN
*I *461:Y O *C 58.88 73.6 *L 0 *D OAI22X1
*I *435:B0 I *C 51.98 54.28 *L 0.00314 *D AOI21X1
*I *422:A1 I *C 57.5 53.82 *L 0.00301 *D AOI211X1
*I *421:A1 I *C 60.26 53.82 *L 0.00301 *D AOI211X1

*CAP
1 *421:A1 0.000486623
2 *461:Y 0.00160718
3 *422:A1 0.000125828
4 *435:B0 0.000699413
5 *272:4 0.00215303891
6 *272:5 0.000884476
7 *435:B0 *445:A 0.000561475742
8 *272:4 *34:5 0.000538229961
9 *421:A1 *422:A0 0.000235915176

*RES
1 *435:B0 *272:5 10.452
2 *272:5 *272:4 3.53775
3 *422:A1 *272:5 9.22844
4 *272:4 *461:Y 30.3627243
5 *421:A1 *272:4 13.8128
*END

*D_NET *273 0.0121654

*CONN
*I *625:Y O *C 28.52 52.44 *L 0 *D NAND2X1
*I *616:A I *C 49.22 48.76 *L 0.00303 *D CLKINVX1
*I *614:A I *C 47.38 54.28 *L 0.00306 *D NAND2X1
*I *424:A I *C 51.98 48.76 *L 0.00306 *D NAND2X1
*I *422:A0 I *C 57.96 54.28 *L 0.00303 *D AOI211X1
*I *420:A I *C 56.12 48.76 *L 0.00306 *D NAND2X1

*CAP
1 *422:A0 0.000671714
2 *420:A 0.000109232
3 *424:A 8.80528e-05
4 *616:A 8.1863e-05
5 *625:Y 0.00258169
6 *614:A 0.000294804
7 *273:6 0.00117649
8 *273:7 0.000684215
9 *273:8 0.00138287
10 *273:9 0.00397694125
11 *273:9 *277:5 0.000247120859
12 *273:9 *377:B0 0.000218451016
13 *422:A0 *421:A0 0.00041604043
14 *422:A0 *421:A1 0.000235915176

*RES
1 *614:A *273:9 11.9143
2 *273:9 *625:Y 12.4795
3 *273:8 *273:9 13.6297
4 *616:A *273:8 8.06431
5 *273:7 *273:8 0.380666
6 *424:A *273:7 8.06431
7 *273:6 *273:7 0.596761
8 *420:A *273:6 8.06431
9 *422:A0 *273:6 19.8625336
*END

*D_NET *274 0.0138898

*CONN
*I *629:Y O *C 26.68 52.44 *L 0 *D NAND2X1
*I *619:A I *C 46 46 *L 0.00303 *D CLKINVX1
*I *614:B I *C 47.84 54.28 *L 0.00317 *D NAND2X1
*I *430:A I *C 52.9 46 *L 0.00306 *D NAND2X1
*I *421:A0 I *C 60.72 54.28 *L 0.00303 *D AOI211X1
*I *419:A I *C 49.22 54.28 *L 0.00306 *D NAND2X1

*CAP
1 *421:A0 0.00111848
2 *430:A 0.000699538
3 *419:A 2.31741e-05
4 *629:Y 0.0024957
5 *614:B 6.87828e-05
6 *619:A 0.000490724
7 *274:6 0.00114165
8 *274:7 0.000596816
9 *274:8 0.00269275906
10 *274:9 0.0016588
11 *274:8 *276:5 0.000727415078
12 *421:A0 *445:A 0.000576257695
13 *421:A0 *422:A0 0.00041604043
14 *421:A0 *435:A0 0.000500440586
15 *421:A0 *250:5 0.000683188438

*RES
1 *619:A *274:9 12.2231
2 *614:B *274:8 8.072
3 *274:8 *629:Y 12.4826
4 *274:9 *274:7 6.20538
5 *419:A *274:6 4.55484
6 *274:7 *274:8 3.68169
7 *274:6 *274:7 0.499909
8 *430:A *274:9 12.4756
9 *421:A0 *274:6 13.4105682
*END

*D_NET *275 0.00358772

*CONN
*I *435:Y O *C 52.44 54.74 *L 0 *D AOI21X1
*I *420:B I *C 56.58 48.76 *L 0.00317 *D NAND2X1
*I *419:B I *C 49.68 54.28 *L 0.00317 *D NAND2X1

*CAP
1 *420:B 0.000884587
2 *435:Y 0.000291474
3 *419:B 0.000240806
4 *275:3 0.000383435
5 *275:4 0.00126159188
6 *275:5 0.000525832

*RES
1 *275:5 *275:4 3.89804
2 *419:B *275:5 6.66649
3 *275:3 *435:Y 7.07734
4 *275:4 *275:3 3.51722
5 *420:B *275:4 17.5756226
*END

*D_NET *276 0.00549757

*CONN
*I *635:Y O *C 30.36 52.44 *L 0 *D NAND2X1
*I *628:A I *C 40.48 48.76 *L 0.00303 *D CLKINVX1
*I *418:A I *C 35.42 54.28 *L 0.00306 *D NAND2X1
*I *417:A I *C 34.96 48.76 *L 0.00306 *D NAND2X1
*I *415:A0 I *C 37.72 54.28 *L 0.00303 *D AOI211X1

*CAP
1 *628:A 0.000541395
2 *415:A0 8.35642e-05
3 *418:A 0.000148423
4 *635:Y 0.00056392
5 *417:A 0.000511762
6 *276:5 0.000536689
7 *276:6 0.000928224
8 *276:7 0.00129038094
9 *276:5 *274:8 0.000727415078
10 *628:A *425:A 0.000165820117

*RES
1 *417:A *276:7 12.7210617
2 *276:6 *635:Y 9.41579
3 *418:A *276:6 8.54968
4 *276:7 *276:5 2.93763
5 *276:5 *276:6 3.82587
6 *415:A0 *276:5 5.03244
7 *628:A *276:7 12.5904
*END

*D_NET *277 0.00880325

*CONN
*I *632:Y O *C 31.28 56.58 *L 0 *D NOR2X1
*I *425:A I *C 38.64 49.22 *L 0.00195 *D OR2X1
*I *423:A0 I *C 37.26 46 *L 0.00299 *D OAI211X1
*I *416:A0 I *C 41.4 57.04 *L 0.00299 *D OAI211X1
*I *413:A I *C 32.2 53.82 *L 0.00195 *D OR2X1

*CAP
1 *416:A0 0.00119369
2 *425:A 6.34664e-05
3 *423:A0 0.000519085
4 *632:Y 0.000172383
5 *413:A 2.28778e-05
6 *277:5 0.00222778313
7 *277:6 0.0015512
8 *277:7 0.00185324
9 *277:5 *273:9 0.000247120859
10 *277:5 *405:B0 0.000381469727
11 *425:A *628:A 0.000165820117
12 *416:A0 *333:10 0.000213503828
13 *416:A0 *377:B0 0.000191569336

*RES
1 *413:A *277:7 4.54983
2 *277:7 *277:6 1.84812
3 *277:6 *632:Y 11.646
4 *423:A0 *277:5 17.5584564
5 *277:5 *277:7 12.214
6 *425:A *277:5 8.0261
7 *416:A0 *277:6 13.1447
*END

*D_NET *278 0.00334525

*CONN
*I *422:Y O *C 59.34 54.74 *L 0 *D AOI211X1
*I *414:A I *C 57.96 57.04 *L 0.00303 *D CLKINVX1
*I *408:A1 I *C 51.98 57.04 *L 0.00314 *D OAI21X1

*CAP
1 *422:Y 0.000552361
2 *414:A 0.000164034
3 *408:A1 0.000956231
4 *278:3 0.00167262547

*RES
1 *408:A1 *278:3 9.80979
2 *414:A *278:3 8.92483
3 *278:3 *422:Y 18.1183815
*END

*D_NET *279 0.000593185

*CONN
*I *414:Y O *C 58.42 56.58 *L 0 *D CLKINVX1
*I *397:B0 I *C 57.04 57.04 *L 0.00308 *D AOI22X1

*CAP
1 *414:Y 4.82215e-05
2 *397:B0 0.000248371
3 *279:2 0.000296592715

*RES
1 *397:B0 *279:2 11.7051601
2 *279:2 *414:Y 4.72897
*END

*D_NET *280 0.00638759

*CONN
*I *421:Y O *C 62.1 54.74 *L 0 *D AOI211X1
*I *412:A I *C 57.04 40.48 *L 0.00303 *D CLKINVX1
*I *409:A1 I *C 55.2 46 *L 0.00314 *D OAI21X1

*CAP
1 *412:A 0.000323589
2 *421:Y 0.00207968
3 *409:A1 0.000329253
4 *280:3 0.000406045
5 *280:4 0.002491355
6 *280:4 *333:8 0.00047314168
7 *280:3 *390:A1 0.000284552578

*RES
1 *409:A1 *280:4 8.44146
2 *280:4 *421:Y 17.1058178
3 *412:A *280:3 8.75572
4 *280:3 *280:4 3.51716
*END

*D_NET *281 0.00068152

*CONN
*I *412:Y O *C 57.5 40.02 *L 0 *D CLKINVX1
*I *393:B0 I *C 56.12 40.48 *L 0.00308 *D AOI22X1

*CAP
1 *412:Y 5.47784e-05
2 *393:B0 0.000285981
3 *281:2 0.000340759766

*RES
1 *393:B0 *281:2 11.7281675
2 *281:2 *412:Y 4.80931
*END

*D_NET *282 0.00450683

*CONN
*I *415:Y O *C 39.1 54.74 *L 0 *D AOI211X1
*I *411:A I *C 25.3 48.76 *L 0.00303 *D CLKINVX1
*I *407:A1 I *C 29.44 48.76 *L 0.00314 *D OAI21X1

*CAP
1 *415:Y 0.00055165
2 *407:A1 0.000120107
3 *411:A 0.00033254
4 *282:3 0.00180077547
5 *282:4 0.00170177

*RES
1 *411:A *282:4 8.66122
2 *282:4 *282:3 4.97888
3 *407:A1 *282:4 8.06439
4 *282:3 *415:Y 9.80043411
*END

*D_NET *283 0.00201082

*CONN
*I *411:Y O *C 25.76 48.3 *L 0 *D CLKINVX1
*I *384:B0 I *C 30.36 40.48 *L 0.00308 *D AOI22X1

*CAP
1 *411:Y 0.00100541117
2 *384:B0 0.00100541117

*RES
1 *384:B0 *411:Y 23.3634
*END

*D_NET *284 0.00341892

*CONN
*I *416:Y O *C 43.24 56.58 *L 0 *D OAI211X1
*I *410:A I *C 38.64 57.04 *L 0.00303 *D CLKINVX1
*I *378:B0 I *C 36.8 62.56 *L 0.00308 *D AOI22X1

*CAP
1 *416:Y 9.16104e-05
2 *410:A 0.000146925
3 *378:B0 0.00036263
4 *284:3 0.000848053
5 *284:4 0.00125521422
6 *284:5 0.000714477

*RES
1 *284:5 *284:4 3.75367
2 *378:B0 *284:5 8.61287117
3 *410:A *284:4 8.37999
4 *284:4 *284:3 4.18618
5 *284:3 *416:Y 5.27357
*END

*D_NET *285 0.00123298

*CONN
*I *410:Y O *C 39.1 56.58 *L 0 *D CLKINVX1
*I *405:A1 I *C 36.8 57.04 *L 0.00314 *D OAI21X1

*CAP
1 *410:Y 6.51438e-05
2 *405:A1 0.000551347
3 *285:2 0.000616490859

*RES
1 *405:A1 *285:2 12.6612186
2 *285:2 *410:Y 4.90754
*END

*D_NET *286 0.00183856

*CONN
*I *430:Y O *C 53.36 44.16 *L 0 *D NAND2X1
*I *409:B0 I *C 55.66 46 *L 0.00315 *D OAI21X1
*I *390:A0 I *C 57.04 46.46 *L 0.00299 *D AOI22X1

*CAP
1 *390:A0 0.000298614
2 *430:Y 0.000514271
3 *409:B0 0.000106397
4 *286:3 0.000919282422

*RES
1 *409:B0 *286:3 8.03894
2 *286:3 *430:Y 9.84048843
3 *390:A0 *286:3 8.26778
*END

*D_NET *287 0.00215757

*CONN
*I *426:Y O *C 51.98 46.46 *L 0 *D OAI211X1
*I *409:A0 I *C 54.74 46 *L 0.00302 *D OAI21X1
*I *393:A0 I *C 54.28 40.02 *L 0.00299 *D AOI22X1

*CAP
1 *409:A0 0.000134834
2 *426:Y 0.000441012
3 *393:A0 0.000502939
4 *287:3 0.00107878445

*RES
1 *393:A0 *287:3 9.71113
2 *287:3 *426:Y 12.1171474
3 *409:A0 *287:3 11.5763
*END

*D_NET *288 0.00109303

*CONN
*I *409:Y O *C 56.12 46.46 *L 0 *D OAI21X1
*I *406:B I *C 58.42 48.76 *L 0.00317 *D NAND2X1

*CAP
1 *409:Y 0.000546515
2 *406:B 0.000546515

*RES
1 *406:B *409:Y 18.0298
*END

*D_NET *289 0.00342083

*CONN
*I *424:Y O *C 52.44 50.6 *L 0 *D NAND2X1
*I *408:B0 I *C 52.44 57.04 *L 0.00315 *D OAI21X1
*I *394:A0 I *C 46.92 56.58 *L 0.00299 *D AOI22X1

*CAP
1 *408:B0 0.000153907
2 *424:Y 0.000751424
3 *394:A0 0.000805084
4 *289:3 0.00171041484

*RES
1 *394:A0 *289:3 8.84925
2 *289:3 *424:Y 20.2579498
3 *408:B0 *289:3 8.29069
*END

*D_NET *290 0.00571316

*CONN
*I *428:Y O *C 49.22 46.46 *L 0 *D OAI211X1
*I *408:A0 I *C 51.52 57.04 *L 0.00302 *D OAI21X1
*I *397:A0 I *C 55.2 56.58 *L 0.00299 *D AOI22X1

*CAP
1 *397:A0 0.00020747
2 *428:Y 0.00180728
3 *408:A0 0.000426712
4 *290:3 0.00244146578
5 *290:3 *267:5 0.000250279902
6 *397:A0 *333:8 0.000190615645
7 *397:A0 *306:6 0.000389337539

*RES
1 *408:A0 *290:3 11.7337
2 *290:3 *428:Y 13.8298273
3 *397:A0 *290:3 11.762
*END

*D_NET *291 0.00143719

*CONN
*I *408:Y O *C 52.9 56.58 *L 0 *D OAI21X1
*I *404:B I *C 50.14 57.04 *L 0.00317 *D NAND2X1

*CAP
1 *408:Y 0.000182096
2 *404:B 0.000536497
3 *291:2 0.000718593594

*RES
1 *404:B *291:2 13.3671761
2 *291:2 *408:Y 6.36295
*END

*D_NET *292 0.00278676

*CONN
*I *417:Y O *C 35.42 50.6 *L 0 *D NAND2X1
*I *407:B0 I *C 29.9 48.76 *L 0.00315 *D OAI21X1
*I *385:A0 I *C 29.44 46.46 *L 0.00299 *D AOI22X1

*CAP
1 *417:Y 0.000219933
2 *407:B0 0.00016969
3 *385:A0 0.000240739
4 *292:3 0.00098294
5 *292:4 0.00117343664

*RES
1 *385:A0 *292:4 9.13250446
2 *292:4 *292:3 4.33033
3 *407:B0 *292:4 8.52284
4 *292:3 *417:Y 6.64857
*END

*D_NET *293 0.00417173

*CONN
*I *423:Y O *C 39.1 46.46 *L 0 *D OAI211X1
*I *407:A0 I *C 28.98 48.76 *L 0.00302 *D OAI21X1
*I *384:A0 I *C 28.52 40.02 *L 0.00299 *D AOI22X1

*CAP
1 *407:A0 0.000186386
2 *423:Y 0.00122918
3 *384:A0 0.000670303
4 *293:3 0.00208586453

*RES
1 *384:A0 *293:3 17.2153702
2 *293:3 *423:Y 13.128
3 *407:A0 *293:3 6.0951
*END

*D_NET *294 0.000844002

*CONN
*I *407:Y O *C 30.36 48.3 *L 0 *D OAI21X1
*I *402:B I *C 31.74 48.76 *L 0.00317 *D NAND2X1

*CAP
1 *407:Y 0.000422000898
2 *402:B 0.000422000898

*RES
1 *402:B *407:Y 16.871
*END

*D_NET *295 0.00175834

*CONN
*I *420:Y O *C 56.58 50.6 *L 0 *D NAND2X1
*I *406:A I *C 57.96 48.76 *L 0.00306 *D NAND2X1
*I *390:B0 I *C 58.88 46 *L 0.00308 *D AOI22X1

*CAP
1 *390:B0 0.000429932
2 *406:A 4.50618e-05
3 *420:Y 0.000404175
4 *295:3 0.000879168516

*RES
1 *295:3 *420:Y 12.8868
2 *406:A *295:3 4.58171
3 *390:B0 *295:3 13.7064457
*END

*D_NET *296 0.00555146

*CONN
*I *425:Y O *C 39.56 48.3 *L 0 *D OR2X1
*I *405:B0 I *C 37.26 57.04 *L 0.00315 *D OAI21X1
*I *377:A0 I *C 37.72 63.02 *L 0.00299 *D AOI22X1

*CAP
1 *425:Y 0.001693
2 *377:A0 0.00028211
3 *405:B0 0.000198001
4 *296:3 0.000621779
5 *296:4 0.00223070391
6 *405:B0 *277:5 0.000381469727
7 *296:3 *377:B0 0.000144362451

*RES
1 *405:B0 *296:4 11.515
2 *296:3 *296:4 7.31101
3 *377:A0 *296:3 7.38975
4 *296:4 *425:Y 13.5089159
*END

*D_NET *297 0.00553823

*CONN
*I *429:Y O *C 41.86 46.46 *L 0 *D OAI211X1
*I *405:A0 I *C 36.34 57.04 *L 0.00302 *D OAI21X1
*I *378:A0 I *C 34.96 63.02 *L 0.00299 *D AOI22X1

*CAP
1 *429:Y 7.83755e-05
2 *405:A0 0.000145486
3 *378:A0 0.000334149
4 *297:3 0.00155693
5 *297:4 0.00195819141
6 *405:A0 *137:11 0.000709533672
7 *405:A0 *326:12 0.000462770469
8 *405:A0 *301:3 0.000292778008

*RES
1 *378:A0 *297:4 16.7077789
2 *297:4 *297:3 16.3753
3 *405:A0 *297:4 11.6332
4 *297:3 *429:Y 5.05037
*END

*D_NET *298 0.00152218

*CONN
*I *405:Y O *C 37.72 56.58 *L 0 *D OAI21X1
*I *400:B I *C 34.04 57.96 *L 0.0026 *D CLKAND2X2

*CAP
1 *405:Y 0.000761091719
2 *400:B 0.000761091719

*RES
1 *400:B *405:Y 17.6733
*END

*D_NET *299 0.00133944

*CONN
*I *419:Y O *C 49.68 52.44 *L 0 *D NAND2X1
*I *404:A I *C 49.68 57.04 *L 0.00306 *D NAND2X1
*I *394:B0 I *C 48.76 57.04 *L 0.00308 *D AOI22X1

*CAP
1 *404:A 2.56503e-06
2 *419:Y 0.000389813
3 *394:B0 0.00027734
4 *299:3 0.000669717813

*RES
1 *394:B0 *299:3 11.6331577
2 *299:3 *419:Y 8.40305
3 *404:A *299:3 4.50639
*END

*D_NET *300 0.00216031

*CONN
*I *413:Y O *C 33.12 54.74 *L 0 *D OR2X1
*I *402:A I *C 31.28 48.76 *L 0.00306 *D NAND2X1
*I *385:B0 I *C 31.28 46 *L 0.00308 *D AOI22X1

*CAP
1 *402:A 4.12383e-05
2 *413:Y 0.000799712
3 *385:B0 0.000239188
4 *300:3 0.00108015539

*RES
1 *385:B0 *300:3 6.76034
2 *300:3 *413:Y 16.7382965
3 *402:A *300:3 4.58173
*END

*D_NET *301 0.00575548

*CONN
*I *418:Y O *C 35.88 52.44 *L 0 *D NAND2X1
*I *400:A I *C 34.96 57.5 *L 0.00263 *D CLKAND2X2
*I *377:B0 I *C 39.56 62.56 *L 0.00308 *D AOI22X1

*CAP
1 *377:B0 0.00167353
2 *418:Y 0.000592574
3 *400:A 5.00085e-05
4 *301:3 0.00231611734
5 *301:3 *405:A0 0.000292778008
6 *377:B0 *273:9 0.000218451016
7 *377:B0 *333:10 0.000276088711
8 *377:B0 *416:A0 0.000191569336
9 *377:B0 *296:3 0.000144362451

*RES
1 *400:A *301:3 8.2264
2 *301:3 *418:Y 19.6955204
3 *377:B0 *301:3 16.4573
*END

*D_NET *302 0.00332928

*CONN
*I *404:Y O *C 50.14 58.88 *L 0 *D NAND2X1
*I *401:A I *C 53.82 57.04 *L 0.00583 *D INVX2
*I *397:B1 I *C 56.12 57.04 *L 0.00319 *D AOI22X1
*I *394:B1 I *C 47.84 57.04 *L 0.00319 *D AOI22X1

*CAP
1 *397:B1 0.000482975
2 *401:A 0.000165827
3 *404:Y 0.000107998
4 *394:B1 0.00039857
5 *302:4 0.00108653305
6 *302:5 0.000179522
7 *302:6 0.00090784

*RES
1 *394:B1 *302:6 8.68868828
2 *302:5 *404:Y 5.32728
3 *302:6 *302:5 3.51718
4 *401:A *302:4 8.38004
5 *302:4 *302:6 0.52488
6 *397:B1 *302:4 8.68868828
*END

*D_NET *303 0.00369358

*CONN
*I *397:Y O *C 56.12 56.58 *L 0 *D AOI22X1
*I *373:A1 I *C 54.28 62.56 *L 0.0031 *D OAI211X1

*CAP
1 *397:Y 0.00184679031
2 *373:A1 0.00184679031

*RES
1 *373:A1 *397:Y 24.5689
*END

*D_NET *304 0.00440824

*CONN
*I *396:Y O *C 66.7 54.74 *L 0 *D MX2X1
*I *380:D I *C 60.26 47.84 *L 0.00181 *D DFFRX1

*CAP
1 *396:Y 0.000154004
2 *380:D 0.00205012
3 *304:2 0.00220412016

*RES
1 *380:D *304:2 13.2846832
2 *304:2 *396:Y 11.4763
*END

*D_NET *305 0.00321364

*CONN
*I *395:Y O *C 71.3 40.02 *L 0 *D MX2X1
*I *382:D I *C 60.26 39.56 *L 0.00181 *D DFFRX1

*CAP
1 *395:Y 0.00160682203
2 *382:D 0.00160682203

*RES
1 *382:D *395:Y 17.8876
*END

*D_NET *306 0.0086016

*CONN
*I *401:Y O *C 54.28 56.58 *L 0 *D INVX2
*I *397:A1 I *C 55.66 57.04 *L 0.00311 *D AOI22X1
*I *396:B I *C 66.24 54.74 *L 0.00181 *D MX2X1
*I *394:A1 I *C 47.38 57.04 *L 0.00311 *D AOI22X1
*I *392:A I *C 65.78 63.02 *L 0.00178 *D MX2X1

*CAP
1 *396:B 0.000490442
2 *392:A 0.00107729
3 *397:A1 9.9843e-05
4 *401:Y 3.16525e-05
5 *394:A1 0.000917716
6 *306:5 0.00225472453
7 *306:6 0.000986285
8 *306:7 0.00114881
9 *306:6 *250:5 0.00045681
10 *306:6 *397:A0 0.000389337539
11 *392:A *326:9 0.000530540938
12 *396:B *317:14 0.000218153008

*RES
1 *394:A1 *306:7 13.7077
2 *306:7 *401:Y 4.58182
3 *306:6 *306:7 3.82906
4 *397:A1 *306:6 8.02346
5 *306:5 *306:6 1.24543
6 *392:A *306:5 20.9659348
7 *396:B *306:5 17.2249
*END

*D_NET *307 0.0029763

*CONN
*I *394:Y O *C 47.84 56.58 *L 0 *D AOI22X1
*I *369:A1 I *C 46.92 62.1 *L 0.00315 *D OAI221X1

*CAP
1 *394:Y 0.00148814922
2 *369:A1 0.00148814922

*RES
1 *369:A1 *394:Y 24.4778
*END

*D_NET *308 0.00304556

*CONN
*I *406:Y O *C 58.42 50.6 *L 0 *D NAND2X1
*I *403:A I *C 58.42 40.48 *L 0.00583 *D INVX2
*I *393:B1 I *C 55.2 40.48 *L 0.00319 *D AOI22X1
*I *390:B1 I *C 57.96 46 *L 0.00319 *D AOI22X1

*CAP
1 *406:Y 0.000388497
2 *403:A 0.000121171
3 *390:B1 0.000164329
4 *393:B1 0.000563201
5 *308:4 0.0008384
6 *308:5 0.000969946406

*RES
1 *393:B1 *308:5 12.9749775
2 *390:B1 *308:4 11.5762
3 *403:A *308:5 5.48788
4 *308:5 *308:4 3.48212
5 *308:4 *406:Y 8.2826
*END

*D_NET *309 0.00398219

*CONN
*I *393:Y O *C 55.2 40.02 *L 0 *D AOI22X1
*I *374:A1 I *C 58.88 37.72 *L 0.0031 *D OAI211X1

*CAP
1 *393:Y 0.00199109313
2 *374:A1 0.00199109313

*RES
1 *374:A1 *393:Y 24.615
*END

*D_NET *310 0.00449026

*CONN
*I *392:Y O *C 67.62 63.02 *L 0 *D MX2X1
*I *379:D I *C 61.18 56.12 *L 0.00181 *D DFFRX1

*CAP
1 *392:Y 0.00224512813
2 *379:D 0.00224512813

*RES
1 *379:D *392:Y 24.9133
*END

*D_NET *311 0.00858557

*CONN
*I *403:Y O *C 58.88 40.02 *L 0 *D INVX2
*I *395:B I *C 70.84 40.02 *L 0.00181 *D MX2X1
*I *393:A1 I *C 54.74 40.48 *L 0.00311 *D AOI22X1
*I *391:A I *C 69.46 46.46 *L 0.00178 *D MX2X1
*I *390:A1 I *C 57.5 46 *L 0.00311 *D AOI22X1

*CAP
1 *395:B 0.000148411
2 *391:A 0.000771334
3 *390:A1 0.000301481
4 *393:A1 0.000514079
5 *311:5 0.0016685725
6 *311:6 0.0010482
7 *311:7 0.000463972
8 *311:8 0.000651007
9 *390:A1 *280:3 0.000284552578
10 *391:A *315:16 0.000357151016
11 *311:5 *321:5 0.00237679484

*RES
1 *393:A1 *311:8 12.3245
2 *311:7 *311:6 3.68151
3 *390:A1 *311:7 8.53258
4 *311:8 *403:Y 4.49996
5 *311:6 *311:8 4.27603
6 *391:A *311:5 19.9397812
7 *395:B *311:5 8.87122
8 *311:5 *311:6 1.82189
*END

*D_NET *312 0.00256717

*CONN
*I *391:Y O *C 71.3 46.46 *L 0 *D MX2X1
*I *381:D I *C 60.26 46.92 *L 0.00181 *D DFFRX1

*CAP
1 *391:Y 0.00128358602
2 *381:D 0.00128358602

*RES
1 *381:D *391:Y 17.8168
*END

*D_NET *313 0.00271082

*CONN
*I *390:Y O *C 57.96 46.46 *L 0 *D AOI22X1
*I *367:A1 I *C 55.66 37.26 *L 0.00315 *D OAI221X1

*CAP
1 *390:Y 0.00135540969
2 *367:A1 0.00135540969

*RES
1 *367:A1 *390:Y 31.8396
*END

*D_NET *314 0.00102186

*CONN
*I *389:Y O *C 78.66 64.86 *L 0 *D MX2X1
*I *376:D I *C 81.42 64.4 *L 0.00181 *D DFFRX1

*CAP
1 *389:Y 0.000510931016
2 *376:D 0.000510931016

*RES
1 *376:D *389:Y 16.5904
*END

*D_NET *315 0.0182203

*CONN
*I *618:Y O *C 71.76 69 *L 0 *D NAND3X1
*I *578:B I *C 68.08 70.84 *L 0.00317 *D NAND2X1
*I *475:S0 I *C 66.7 33.12 *L 0.00375 *D MX2X1
*I *473:S0 I *C 77.74 33.12 *L 0.00375 *D MX2X1
*I *464:S0 I *C 63.02 33.12 *L 0.00375 *D MX2X1
*I *462:S0 I *C 76.82 24.84 *L 0.00375 *D MX2X1
*I *392:S0 I *C 65.78 61.64 *L 0.00375 *D MX2X1
*I *391:S0 I *C 69.46 45.08 *L 0.00375 *D MX2X1
*I *388:S0 I *C 78.66 49.68 *L 0.00375 *D MX2X1
*I *383:S0 I *C 70.38 57.96 *L 0.00375 *D MX2X1

*CAP
1 *388:S0 0.000275849
2 *473:S0 0.000165465
3 *462:S0 0.000449824
4 *618:Y 3.16995e-05
5 *383:S0 0.000231673
6 *391:S0 0.000253679
7 *578:B 0.000685216
8 *475:S0 0.000128203
9 *392:S0 0.000462769
10 *464:S0 0.000442443
11 *315:10 0.00097489
12 *315:11 0.000518676
13 *315:12 0.0013368
14 *315:13 0.00121741
15 *315:14 0.00125068
16 *315:15 0.00131821
17 *315:16 0.00180488828
18 *315:17 0.00133895
19 *315:18 0.000988055
20 *464:S0 *2:76 1.39475e-05
21 *392:S0 *2:73 1.5974e-05
22 *315:14 *2:70 6.78301e-05
23 *315:12 *2:70 0.000254333
24 *388:S0 *2:64 0.000132501
25 *388:S0 *375:RN 4.99487e-05
26 *388:S0 *2:65 0.000203907
27 *388:S0 *2:70 0.000277698
28 *388:S0 *372:RN 5.04262164e-05
29 *315:18 *448:CK 2.72989e-05
30 *315:17 *370:CK 3.44515e-05
31 *315:16 *448:CK 0.000147343
32 *315:14 *1:65 6.59823e-05
33 *315:13 *370:CK 0.000247359
34 *315:12 *1:65 4.95911e-05
35 *315:12 *372:CK 3.27826e-06
36 *315:10 *448:CK 3.9041e-05
37 *388:S0 *1:64 0.00026232
38 *388:S0 *1:65 0.000274241
39 *388:S0 *375:CK 4.97699153e-05
40 *315:16 *391:A 0.000357151016
41 *315:11 *243:8 0.000486373906
42 *473:S0 *177:4 0.000229120254
43 *388:S0 *317:12 0.0010049343

*RES
1 *464:S0 *315:18 9.02097
2 *392:S0 *315:17 8.89525
3 *475:S0 *315:18 8.49613
4 *315:18 *315:16 4.11398
5 *578:B *315:15 13.7089491
6 *391:S0 *315:14 11.741
7 *383:S0 *315:13 11.6868
8 *315:16 *315:14 9.47322
9 *315:14 *315:12 7.56423
10 *315:12 *315:13 10.2671
11 *315:13 *315:17 6.45473
12 *315:17 *315:15 10.051
13 *315:15 *618:Y 4.58171
14 *462:S0 *315:11 11.8271
15 *315:11 *315:10 3.51719
16 *315:10 *315:16 4.61665
17 *473:S0 *315:10 8.1491
18 *388:S0 *315:12 9.13519
*END

*D_NET *316 0.00298643

*CONN
*I *388:Y O *C 80.5 48.3 *L 0 *D MX2X1
*I *372:D I *C 69.46 47.84 *L 0.00181 *D DFFRX1

*CAP
1 *388:Y 0.00149321563
2 *372:D 0.00149321563

*RES
1 *372:D *388:Y 18.1772
*END

*D_NET *317 0.0264096

*CONN
*I *599:Y O *C 72.22 64.86 *L 0 *D NOR2X1
*I *574:C I *C 62.56 62.1 *L 0.00181 *D OR3X1
*I *474:S0 I *C 64.4 16.56 *L 0.00375 *D MX2X1
*I *472:S0 I *C 80.5 24.84 *L 0.00375 *D MX2X1
*I *465:S0 I *C 74.98 16.56 *L 0.00375 *D MX2X1
*I *463:S0 I *C 65.78 24.84 *L 0.00375 *D MX2X1
*I *396:S0 I *C 64.86 53.36 *L 0.00375 *D MX2X1
*I *395:S0 I *C 69.46 41.4 *L 0.00375 *D MX2X1
*I *387:S0 I *C 76.36 53.36 *L 0.00375 *D MX2X1
*I *386:S0 I *C 80.5 41.4 *L 0.00375 *D MX2X1

*CAP
1 *386:S0 1.37083e-05
2 *472:S0 5.56839e-05
3 *387:S0 5.11933e-05
4 *465:S0 0.000891841
5 *599:Y 0.00017003
6 *395:S0 0.0009973
7 *463:S0 8.1966e-05
8 *396:S0 6.9014e-05
9 *474:S0 8.12569e-05
10 *574:C 0.000327533
11 *317:10 0.00269519
12 *317:11 0.00177149
13 *317:12 0.00309783219
14 *317:13 0.00307117
15 *317:14 0.00132294
16 *317:15 0.00235905
17 *317:16 0.000805432
18 *317:17 0.00169656
19 *317:18 0.00137744
20 *317:18 *326:9 0.000583767891
21 *317:14 *396:B 0.000218153008
22 *463:S0 *475:A 0.000319004063
23 *317:12 *2:65 0.000400603
24 *317:11 *2:64 0.000400602625
25 *317:12 *388:S0 0.0010049343
26 *317:12 *598:S0 0.000874638594
27 *317:12 *131:6 0.000901699063
28 *317:10 *386:B 0.000476479531
29 *317:10 *538:A 0.000293016426

*RES
1 *574:C *317:18 12.7496
2 *474:S0 *317:17 8.10014
3 *317:18 *317:16 8.96665
4 *317:17 *317:15 13.8767
5 *396:S0 *317:14 8.02871
6 *317:14 *317:18 9.74294
7 *317:15 *317:13 2.25444
8 *463:S0 *317:15 8.03096
9 *395:S0 *317:12 9.78166
10 *317:16 *599:Y 6.85393
11 *465:S0 *317:17 9.61325
12 *387:S0 *317:11 8.02871
13 *317:11 *317:14 1.74995
14 *317:12 *317:11 16.9487
15 *317:13 *317:10 24.6368637
16 *472:S0 *317:13 8.03096
17 *317:10 *317:12 11.5045
18 *386:S0 *317:10 4.53708
*END

*D_NET *318 0.0033164

*CONN
*I *387:Y O *C 78.2 54.74 *L 0 *D MX2X1
*I *371:D I *C 74.06 56.12 *L 0.00181 *D DFFRX1

*CAP
1 *387:Y 0.00165820125
2 *371:D 0.00165820125

*RES
1 *371:D *387:Y 24.1069
*END

*D_NET *319 0.00422752

*CONN
*I *386:Y O *C 82.34 40.02 *L 0 *D MX2X1
*I *375:D I *C 73.14 46.92 *L 0.00181 *D DFFRX1

*CAP
1 *386:Y 0.00211375953
2 *375:D 0.00211375953

*RES
1 *375:D *386:Y 30.8957
*END

*D_NET *320 0.00326467

*CONN
*I *402:Y O *C 31.74 50.6 *L 0 *D NAND2X1
*I *399:A I *C 31.74 40.94 *L 0.0058 *D CLKINVX2
*I *385:B1 I *C 30.36 46 *L 0.00319 *D AOI22X1
*I *384:B1 I *C 29.44 40.48 *L 0.00319 *D AOI22X1

*CAP
1 *402:Y 0.000641346
2 *399:A 8.36295e-05
3 *385:B1 0.000334084
4 *384:B1 0.000298923
5 *320:4 0.000916957891
6 *320:5 0.000416454
7 *320:6 0.000573275

*RES
1 *384:B1 *320:6 9.09744
2 *320:5 *320:6 3.51724
3 *320:6 *320:4 3.68168
4 *385:B1 *320:5 7.9879
5 *399:A *320:4 5.0771
6 *320:4 *402:Y 12.0949745
*END

*D_NET *321 0.0173244

*CONN
*I *399:Y O *C 32.2 40.02 *L 0 *D CLKINVX2
*I *388:A I *C 78.66 48.3 *L 0.00178 *D MX2X1
*I *386:B I *C 81.88 40.02 *L 0.00181 *D MX2X1
*I *385:A1 I *C 29.9 46 *L 0.00311 *D AOI22X1
*I *384:A1 I *C 28.98 40.48 *L 0.00311 *D AOI22X1

*CAP
1 *386:B 0.0003504
2 *388:A 0.000451881
3 *399:Y 5.66802e-05
4 *385:A1 0.00070065
5 *384:A1 0.000164755
6 *321:5 0.00329887875
7 *321:6 0.000864751
8 *321:7 0.00329878
9 *321:8 0.000520491
10 *321:9 0.00126685
11 *321:5 *539:C 0.000700891016
12 *321:5 *452:A 0.00135672094
13 *321:5 *442:A0 0.000696182266
14 *321:5 *311:5 0.00237679484
15 *321:5 *442:A1 0.000314116484
16 *386:B *317:10 0.000476479531
17 *386:B *538:A 0.000429153438

*RES
1 *384:A1 *321:9 8.48068
2 *321:9 *321:8 4.11226
3 *385:A1 *321:9 19.1203346
4 *321:8 *399:Y 4.80926
5 *321:7 *321:8 3.51708
6 *321:6 *321:5 3.51708
7 *321:5 *321:7 7.22702
8 *388:A *321:6 11.1307
9 *386:B *321:6 12.2014
*END

*D_NET *322 0.00256109

*CONN
*I *385:Y O *C 30.36 46.46 *L 0 *D AOI22X1
*I *364:A1 I *C 29.9 32.66 *L 0.00315 *D OAI221X1

*CAP
1 *385:Y 0.00015456
2 *364:A1 0.00112599
3 *322:2 0.00128054617

*RES
1 *364:A1 *322:2 16.8272247
2 *322:2 *385:Y 11.6147
*END

*D_NET *323 0.00255227

*CONN
*I *384:Y O *C 29.44 40.02 *L 0 *D AOI22X1
*I *368:A1 I *C 27.14 32.2 *L 0.0031 *D OAI211X1

*CAP
1 *384:Y 0.00127613547
2 *368:A1 0.00127613547

*RES
1 *368:A1 *384:Y 30.0998
*END

*D_NET *324 0.00326216

*CONN
*I *383:Y O *C 72.22 56.58 *L 0 *D MX2X1
*I *370:D I *C 71.3 63.48 *L 0.00181 *D DFFRX1

*CAP
1 *383:Y 0.00163108109
2 *370:D 0.00163108109

*RES
1 *370:D *383:Y 24.7209
*END

*D_NET *325 0.00240195

*CONN
*I *398:Y O *C 41.4 63.02 *L 0 *D INVX2
*I *378:B1 I *C 35.88 62.56 *L 0.00319 *D AOI22X1
*I *377:B1 I *C 38.64 62.56 *L 0.00319 *D AOI22X1

*CAP
1 *398:Y 7.0273e-05
2 *377:B1 0.000208559
3 *378:B1 0.000498053
4 *325:3 0.000494361
5 *325:4 0.00113070008

*RES
1 *378:B1 *325:4 9.27853584
2 *377:B1 *325:4 8.89797
3 *325:4 *325:3 3.89796
4 *325:3 *398:Y 4.97014
*END

*D_NET *326 0.0164769

*CONN
*I *400:Y O *C 35.42 56.58 *L 0 *D CLKAND2X2
*I *398:A I *C 40.94 62.56 *L 0.00583 *D INVX2
*I *389:B I *C 78.2 64.86 *L 0.00181 *D MX2X1
*I *387:B I *C 77.74 54.74 *L 0.00181 *D MX2X1
*I *383:A I *C 70.38 56.58 *L 0.00178 *D MX2X1
*I *378:A1 I *C 35.42 62.56 *L 0.00311 *D AOI22X1
*I *377:A1 I *C 38.18 62.56 *L 0.00311 *D AOI22X1

*CAP
1 *389:B 0.000629405
2 *387:B 0.000212254
3 *383:A 0.000102031
4 *398:A 4.26257e-05
5 *377:A1 6.11552e-05
6 *400:Y 0.000546739
7 *378:A1 4.94649e-05
8 *326:7 0.000694259
9 *326:8 0.000794699
10 *326:9 0.00260585547
11 *326:10 0.00211812
12 *326:11 0.000195275
13 *326:12 0.000641056
14 *326:12 *405:A0 0.000462770469
15 *326:10 *192:19 0.00171286
16 *326:9 *574:B 0.0017128575
17 *326:10 *334:20 0.000823617
18 *326:9 *595:Y 0.000823616906
19 *326:9 *392:A 0.000530540938
20 *326:9 *562:B 0.000597357734
21 *326:9 *317:18 0.000583767891
22 *326:8 *1:64 0.000268281
23 *326:7 *1:55 0.000268280016

*RES
1 *378:A1 *326:12 8.03768
2 *326:12 *400:Y 20.2070465
3 *377:A1 *326:11 8.01733
4 *326:11 *326:12 0.308643
5 *398:A *326:10 8.01733
6 *326:10 *326:11 0.380794
7 *326:9 *326:10 16.6593
8 *383:A *326:9 8.03614
9 *387:B *326:8 9.3444
10 *326:8 *326:9 1.10137
11 *326:7 *326:8 3.53753
12 *389:B *326:7 11.7556
*END

*D_NET *327 0.00424945

*CONN
*I *378:Y O *C 35.88 63.02 *L 0 *D AOI22X1
*I *366:A1 I *C 31.28 65.78 *L 0.00308 *D OAI22X1

*CAP
1 *378:Y 0.00212472672
2 *366:A1 0.00212472672

*RES
1 *366:A1 *378:Y 24.6743
*END

*D_NET *328 0.0025022

*CONN
*I *377:Y O *C 38.64 63.02 *L 0 *D AOI22X1
*I *365:A1 I *C 34.5 70.38 *L 0.00308 *D OAI22X1

*CAP
1 *377:Y 0.000531673
2 *365:A1 0.000719429
3 *328:2 0.00125110148

*RES
1 *365:A1 *328:2 12.8780603
2 *328:2 *377:Y 9.87175
*END

*D_NET *329 0.00307941

*CONN
*I *374:Y O *C 60.26 38.18 *L 0 *D OAI211X1
*I *363:D I *C 53.82 31.74 *L 0.0018 *D DFFSX1

*CAP
1 *374:Y 0.00153970719
2 *363:D 0.00153970719

*RES
1 *363:D *374:Y 29.8517
*END

*D_NET *330 0.00171399

*CONN
*I *373:Y O *C 55.66 63.02 *L 0 *D OAI211X1
*I *362:D I *C 52.44 64.86 *L 0.0018 *D DFFSX1

*CAP
1 *373:Y 0.000856995547
2 *362:D 0.000856995547

*RES
1 *362:D *373:Y 23.6982
*END

*D_NET *331 0.00407588

*CONN
*I *369:Y O *C 48.3 60.72 *L 0 *D OAI221X1
*I *361:D I *C 43.24 64.86 *L 0.0018 *D DFFSX1

*CAP
1 *369:Y 0.00203794234
2 *361:D 0.00203794234

*RES
1 *361:D *369:Y 24.4483
*END

*D_NET *332 0.00434041

*CONN
*I *368:Y O *C 28.52 31.74 *L 0 *D OAI211X1
*I *359:D I *C 24.38 21.62 *L 0.0018 *D DFFSX1

*CAP
1 *368:Y 0.00217020516
2 *359:D 0.00217020516

*RES
1 *359:D *368:Y 25.4499
*END

*D_NET *333 0.0207729

*CONN
*I *608:Y O *C 32.66 56.58 *L 0 *D CLKINVX2
*I *569:A I *C 28.98 37.26 *L 0.00197 *D AND2X2
*I *374:B0 I *C 59.34 37.72 *L 0.0031 *D OAI211X1
*I *373:B0 I *C 54.74 62.56 *L 0.0031 *D OAI211X1
*I *369:C0 I *C 48.3 62.1 *L 0.00314 *D OAI221X1
*I *368:B0 I *C 27.6 32.2 *L 0.0031 *D OAI211X1
*I *367:C0 I *C 57.04 37.26 *L 0.00314 *D OAI221X1
*I *364:C0 I *C 31.28 32.66 *L 0.00314 *D OAI221X1

*CAP
1 *374:B0 0.000357942
2 *367:C0 3.12295e-05
3 *373:B0 0.000174621
4 *369:C0 4.07596e-05
5 *608:Y 8.28388e-05
6 *364:C0 6.70041e-05
7 *569:A 0.000437848
8 *368:B0 0.00033893
9 *333:8 0.00286055
10 *333:9 0.00320285563
11 *333:10 0.00250589
12 *333:11 0.00300443
13 *333:12 0.00119112
14 *333:13 0.000527725
15 *333:14 0.00105965
16 *333:10 *143:11 0.00161218641
17 *333:10 *416:A0 0.000213503828
18 *333:10 *247:4 0.000493049609
19 *333:10 *377:B0 0.000276088711
20 *333:8 *280:4 0.00047314168
21 *333:8 *192:21 0.00101780891
22 *333:8 *397:A0 0.000190615645
23 *374:B0 *374:A0 0.000613093359

*RES
1 *368:B0 *333:14 11.7412
2 *569:A *333:14 12.1678
3 *333:14 *333:13 3.73602
4 *333:13 *333:12 3.75357
5 *364:C0 *333:13 8.01829
6 *333:12 *333:11 20.9107399
7 *333:11 *608:Y 11.5737
8 *369:C0 *333:10 4.58156
9 *333:10 *333:11 13.7402
10 *373:B0 *333:9 8.89798
11 *333:9 *333:10 5.68428
12 *367:C0 *333:8 4.56114
13 *333:8 *333:9 14.8461
14 *374:B0 *333:8 11.8749
*END

*D_NET *334 0.0393511

*CONN
*I *595:Y O *C 63.02 73.14 *L 0 *D OR2X2
*I *581:A I *C 35.88 32.66 *L 0.0058 *D CLKINVX2
*I *552:A1 I *C 17.02 62.56 *L 0.00311 *D AOI22X1
*I *551:A1 I *C 11.04 73.6 *L 0.00311 *D AOI22X1
*I *550:A1 I *C 15.18 65.32 *L 0.00311 *D AOI22X1
*I *549:A1 I *C 13.34 57.04 *L 0.00311 *D AOI22X1
*I *537:A1 I *C 11.04 45.54 *L 0.00312 *D AOI222X1
*I *533:A1 I *C 11.04 53.82 *L 0.00312 *D AOI222X1
*I *532:A1 I *C 11.04 49.22 *L 0.00312 *D AOI222X1
*I *529:A1 I *C 11.04 65.78 *L 0.00312 *D AOI222X1
*I *528:A1 I *C 11.04 40.94 *L 0.00312 *D AOI222X1
*I *527:A1 I *C 12.88 62.1 *L 0.00312 *D AOI222X1
*I *526:A1 I *C 11.96 28.98 *L 0.00312 *D AOI222X1
*I *524:A1 I *C 11.5 37.26 *L 0.00312 *D AOI222X1
*I *369:B1 I *C 47.38 62.1 *L 0.00311 *D OAI221X1
*I *367:B1 I *C 56.12 37.26 *L 0.00311 *D OAI221X1
*I *364:B1 I *C 30.36 32.66 *L 0.00311 *D OAI221X1

*CAP
1 *367:B1 0.000342982
2 *595:Y 0.00297801
3 *369:B1 8.246e-05
4 *581:A 4.25184e-05
5 *364:B1 7.52447e-05
6 *552:A1 0.000215942
7 *550:A1 0.000155729
8 *549:A1 0.000327864
9 *527:A1 3.52173e-05
10 *526:A1 0.000249699
11 *524:A1 0.000139838
12 *551:A1 0.00044975
13 *529:A1 2.71431e-05
14 *533:A1 3.05789e-05
15 *532:A1 2.71431e-05
16 *537:A1 1.62343e-05
17 *528:A1 1.60625e-05
18 *334:17 0.00178036
19 *334:18 0.00171216
20 *334:19 0.00165719
21 *334:20 0.00562918188
22 *334:21 0.00292621
23 *334:22 0.000470967
24 *334:23 0.00178577
25 *334:24 0.000635887
26 *334:25 0.000757257
27 *334:26 0.000722384
28 *334:27 0.000987974
29 *334:28 0.000437639
30 *334:29 0.000453444
31 *334:30 0.000324085
32 *334:31 0.00029823
33 *334:32 0.00047466
34 *334:32 *528:B1 2.2769e-05
35 *334:32 *192:31 7.39098e-06
36 *334:32 *192:32 0.000145733
37 *334:31 *192:31 0.000249624
38 *334:30 *532:B1 2.25902e-05
39 *334:30 *192:29 6.91414e-06
40 *334:30 *192:30 0.000131607
41 *334:30 *537:B1 2.47955e-05
42 *334:30 *192:31 7.7486e-06
43 *528:A1 *192:31 2.37823e-05
44 *537:A1 *192:31 2.41399e-05
45 *334:29 *192:29 0.000230908
46 *334:28 *192:28 0.00014472
47 *334:28 *533:B1 2.28882e-05
48 *334:28 *192:29 7.03335e-06
49 *532:A1 *192:29 2.16365e-05
50 *533:A1 *192:29 2.16961e-05
51 *334:27 *549:B1 3.75509e-06
52 *334:27 *192:27 0.000231802
53 *334:26 *527:B1 0.000103593
54 *334:26 *192:24 5.00679e-06
55 *334:26 *192:26 5.28097e-05
56 *334:26 *192:27 1.20997e-05
57 *334:25 *551:B1 7.21216e-06
58 *334:25 *529:B1 2.38419e-05
59 *334:25 *192:24 5.75781e-05
60 *334:25 *192:26 0.000192165
61 *334:24 *192:25 0.000212312
62 *334:24 *527:B1 4.98295e-05
63 *334:24 *192:26 1.81198e-05
64 *529:A1 *551:B1 2.16961e-05
65 *551:A1 *551:B1 0.000416517
66 *524:A1 *524:B1 5.47171e-05
67 *524:A1 *192:33 2.64645e-05
68 *526:A1 *526:B1 0.000134706
69 *334:23 *526:B1 1.19805e-05
70 *334:23 *192:33 0.000278771
71 *334:22 *550:B1 4.96507e-05
72 *334:22 *192:23 0.000146866
73 *334:22 *192:25 1.7941e-05
74 *549:A1 *549:B1 8.08835e-05
75 *334:21 *192:21 0.000150204
76 *334:21 *192:22 0.000894308
77 *334:21 *552:B1 7.86185e-05
78 *334:21 *192:23 0.000189483
79 *550:A1 *550:B1 6.33597e-05
80 *550:A1 *192:25 4.97103e-05
81 *552:A1 *550:B1 9.0003e-06
82 *552:A1 *192:23 4.98891e-05
83 *334:20 *192:19 6.23465e-05
84 *334:20 *192:21 0.000894309986
85 *526:A1 *528:A0 0.000317573555
86 *334:23 *537:A0 0.000816583672
87 *334:20 *207:3 0.000466406328
88 *334:20 *326:10 0.000823617
89 *595:Y *326:9 0.000823616906
90 *334:19 *346:3 0.000321507461
91 *334:18 *338:21 0.000897646
92 *334:17 *338:15 0.000897645875
93 *334:18 *152:4 0.000724912
94 *334:17 *367:B0 0.000724911438
95 *334:17 *567:A1 0.00050342082

*RES
1 *334:32 *334:31 3.24573
2 *334:31 *334:30 3.82136
3 *528:A1 *334:31 4.58173
4 *537:A1 *334:30 4.58173
5 *334:30 *334:29 2.99997
6 *334:29 *334:28 3.82136
7 *532:A1 *334:29 4.58173
8 *533:A1 *334:28 4.58173
9 *334:28 *334:27 2.61154
10 *334:27 *334:26 11.1056
11 *334:25 *334:24 4.66887
12 *529:A1 *334:25 4.58173
13 *551:A1 *334:25 11.278
14 *524:A1 *334:32 11.6249
15 *526:A1 *334:23 18.0157433
16 *334:23 *334:32 7.16385
17 *527:A1 *334:26 4.58173
18 *334:26 *334:24 5.27145
19 *334:24 *334:22 0.308711
20 *549:A1 *334:27 11.8492
21 *334:22 *334:21 0.236413
22 *550:A1 *334:22 8.60322
23 *552:A1 *334:21 9.44249
24 *334:21 *334:20 13.5354
25 *364:B1 *334:19 8.01851
26 *334:19 *334:23 2.75888
27 *334:18 *334:19 0.81315
28 *581:A *334:18 8.01851
29 *369:B1 *334:20 8.0438
30 *334:20 *595:Y 17.5962
31 *367:B1 *334:17 8.35389
32 *334:17 *334:18 6.63632
*END

*D_NET *335 0.00236619

*CONN
*I *367:Y O *C 57.04 35.88 *L 0 *D OAI221X1
*I *360:D I *C 52.9 29.9 *L 0.0018 *D DFFSX1

*CAP
1 *367:Y 0.00118309258
2 *360:D 0.00118309258

*RES
1 *360:D *367:Y 28.8192
*END

*D_NET *336 0.0137864

*CONN
*I *548:Y O *C 19.78 63.02 *L 0 *D INVX2
*I *514:A1 I *C 23 73.6 *L 0.00314 *D OAI21X1
*I *512:A1 I *C 25.3 73.6 *L 0.00314 *D OAI21X1
*I *511:A1 I *C 24.38 54.28 *L 0.00314 *D OAI21X1
*I *505:A1 I *C 30.36 62.56 *L 0.00314 *D OAI21X1
*I *366:B1 I *C 31.74 65.78 *L 0.00313 *D OAI22X1
*I *365:B1 I *C 34.96 70.38 *L 0.00313 *D OAI22X1

*CAP
1 *365:B1 0.00164782
2 *366:B1 0.00043254
3 *505:A1 0.00014723
4 *512:A1 0.000263919
5 *511:A1 0.000455546
6 *548:Y 0.000741171
7 *514:A1 0.000177142
8 *336:7 0.00293898594
9 *336:8 0.00133399
10 *336:9 0.000529452
11 *336:10 0.00131394
12 *336:11 0.0010907
13 *336:12 0.0011512
14 *336:10 *2:91 0.000385761
15 *336:8 *2:90 0.0003857615
16 *505:A1 *192:22 0.000791192031

*RES
1 *514:A1 *336:12 8.11341
2 *336:11 *548:Y 10.9591
3 *336:10 *336:11 5.91004
4 *336:12 *336:10 12.4456
5 *511:A1 *336:9 9.50579
6 *336:9 *336:11 3.53758
7 *512:A1 *336:12 8.1856
8 *505:A1 *336:8 8.35332
9 *336:8 *336:10 4.47446
10 *336:7 *336:8 4.08667
11 *366:B1 *336:7 11.9051
12 *365:B1 *336:7 12.7516985
*END

*D_NET *337 0.00376666

*CONN
*I *366:Y O *C 32.66 65.32 *L 0 *D OAI22X1
*I *356:D I *C 22.08 64.4 *L 0.00181 *D DFFRX1

*CAP
1 *366:Y 0.00188332797
2 *356:D 0.00188332797

*RES
1 *356:D *366:Y 18.5846
*END

*D_NET *338 0.026632

*CONN
*I *581:Y O *C 36.34 31.74 *L 0 *D CLKINVX2
*I *569:B I *C 28.06 37.26 *L 0.00183 *D AND2X2
*I *562:B I *C 57.04 62.56 *L 0.00317 *D NAND2X1
*I *561:B I *C 28.98 29.44 *L 0.00317 *D NAND2X1
*I *560:B I *C 53.82 37.72 *L 0.00317 *D NAND2X1
*I *374:A0 I *C 58.42 37.72 *L 0.00299 *D OAI211X1
*I *373:A0 I *C 53.82 62.56 *L 0.00299 *D OAI211X1
*I *369:A0 I *C 46.46 62.1 *L 0.00302 *D OAI221X1
*I *368:A0 I *C 26.68 32.2 *L 0.00299 *D OAI211X1
*I *367:A0 I *C 55.2 37.26 *L 0.00302 *D OAI221X1
*I *366:A0 I *C 30.82 65.32 *L 0.00297 *D OAI22X1
*I *365:A0 I *C 34.04 70.84 *L 0.00297 *D OAI22X1
*I *364:A0 I *C 29.44 32.66 *L 0.00302 *D OAI221X1

*CAP
1 *374:A0 0.000316967
2 *562:B 0.000435001
3 *367:A0 0.000153851
4 *560:B 9.10937e-06
5 *373:A0 6.36493e-05
6 *369:A0 9.80323e-05
7 *581:Y 9.03184e-05
8 *365:A0 0.000652967
9 *366:A0 0.000508768
10 *364:A0 0.000134664
11 *561:B 0.000439769
12 *569:B 0.000493107
13 *368:A0 0.000186684
14 *338:13 0.000619476
15 *338:14 0.00198518
16 *338:15 0.00126671
17 *338:16 0.000519273
18 *338:17 0.00238557
19 *338:18 0.000133888
20 *338:19 0.00201232
21 *338:20 0.00254035
22 *338:21 0.00153948
23 *338:22 0.000504426
24 *338:23 0.000762473
25 *338:24 0.000771583
26 *338:21 *334:18 0.000897646
27 *338:15 *334:17 0.000897645875
28 *338:21 *137:9 0.000890732
29 *338:15 *589:B 0.000890731594
30 *338:20 *361:CK 4.85182e-05
31 *338:20 *1:88 0.000247985
32 *338:20 *1:91 0.000607044
33 *338:20 *358:CK 4.70281e-05
34 *338:20 *1:92 0.000256538
35 *338:19 *1:87 0.000247985
36 *338:19 *1:88 0.000607044
37 *374:A0 *1:75 6.55260272e-07
38 *338:20 *128:12 0.000437259688
39 *369:A0 *252:4 0.000344157227
40 *338:13 *560:A 0.000376939766
41 *562:B *326:9 0.000597357734
42 *374:A0 *374:B0 0.000613093359

*RES
1 *368:A0 *338:24 11.6511
2 *338:24 *338:23 4.27608
3 *338:23 *338:22 0.23649
4 *569:B *338:23 18.1718
5 *561:B *338:24 13.5918
6 *364:A0 *338:22 8.36228
7 *338:22 *338:21 1.02924
8 *366:A0 *338:20 13.0725
9 *338:20 *338:19 17.3772
10 *365:A0 *338:20 15.3181
11 *338:18 *581:Y 5.66643
12 *338:21 *338:18 3.5172
13 *369:A0 *338:19 8.47198
14 *338:19 *338:17 4.54644
15 *373:A0 *338:16 4.80033
16 *560:B *338:15 4.53184
17 *338:15 *338:21 16.6686
18 *338:14 *338:15 0.102551
19 *338:17 *338:14 20.3660736
20 *338:16 *338:17 0.214426
21 *367:A0 *338:13 8.61214
22 *338:13 *338:14 3.68159
23 *562:B *338:16 12.2875
24 *374:A0 *338:13 8.65409
*END

*D_NET *339 0.00382185

*CONN
*I *365:Y O *C 35.88 70.84 *L 0 *D OAI22X1
*I *358:D I *C 34.04 64.4 *L 0.00181 *D DFFRX1

*CAP
1 *365:Y 0.00191092484
2 *358:D 0.00191092484

*RES
1 *358:D *365:Y 24.7104
*END

*D_NET *340 0.002846

*CONN
*I *364:Y O *C 31.28 34.04 *L 0 *D OAI221X1
*I *357:D I *C 25.3 23.46 *L 0.0018 *D DFFSX1

*CAP
1 *364:Y 0.000784339
2 *357:D 0.000638662
3 *340:2 0.00142300125

*RES
1 *357:D *340:2 13.6039257
2 *340:2 *364:Y 12.4463
*END

*D_NET *341 0.00449848

*CONN
*I *636:Y O *C 40.94 21.62 *L 0 *D AOI221X1
*I *530:A1 I *C 40.48 32.2 *L 0.00314 *D OAI21X1
*I *471:A I *C 39.56 38.18 *L 0.00178 *D MX2X1

*CAP
1 *530:A1 0.000381412
2 *471:A 0.000675682
3 *636:Y 0.00119215
4 *341:3 0.00224924094

*RES
1 *341:3 *636:Y 20.7160721
2 *471:A *341:3 16.681
3 *530:A1 *341:3 11.723
*END

*D_NET *342 0.0090425

*CONN
*I *534:A0 I *C 20.7 13.34 *L 0.00299 *D AOI22X1
*I *526:A0 I *C 11.5 29.44 *L 0.00299 *D AOI222X1
*I *485:Q O *C 29.9 15.18 *L 0 *D DFFRX1

*CAP
1 *485:Q 0.000681352
2 *534:A0 0.000373726
3 *526:A0 0.00326376
4 *342:3 0.00431883344
5 *526:A0 *497:D 0.000404834766

*RES
1 *526:A0 *342:3 18.0600891
2 *534:A0 *342:3 16.4124
3 *342:3 *485:Q 9.36569
*END

*D_NET *343 0.00659466

*CONN
*I *535:A0 I *C 10.58 15.18 *L 0.00299 *D AOI22X1
*I *524:A0 I *C 11.04 37.72 *L 0.00299 *D AOI222X1
*I *491:Q O *C 20.7 15.18 *L 0 *D DFFRX1

*CAP
1 *491:Q 6.40793e-05
2 *524:A0 0.00117422
3 *535:A0 0.000122123
4 *343:3 0.000765568
5 *343:4 0.00199782844
6 *343:4 *1:105 0.000498056
7 *343:3 *1:90 0.000498056813
8 *343:4 *534:B1 0.000214338301
9 *343:4 *531:A1 0.000312805176
10 *524:A0 *537:A0 0.000947594609

*RES
1 *535:A0 *343:4 8.71918
2 *343:4 *343:3 5.05072
3 *524:A0 *343:4 33.9282761
4 *343:3 *491:Q 5.20241
*END

*D_NET *344 0.00694943

*CONN
*I *536:A0 I *C 10.58 21.62 *L 0.00299 *D AOI22X1
*I *528:A0 I *C 10.58 40.48 *L 0.00299 *D AOI222X1
*I *484:Q O *C 20.7 21.62 *L 0 *D DFFRX1

*CAP
1 *484:Q 0.000115872
2 *528:A0 0.00128742
3 *536:A0 0.00027644
4 *344:3 0.00113051
5 *344:4 0.00257849688
6 *344:4 *192:36 0.000621557
7 *344:3 *192:20 0.000621557453
8 *528:A0 *526:A1 0.000317573555

*RES
1 *536:A0 *344:4 11.7156
2 *528:A0 *344:4 28.2816887
3 *344:4 *344:3 9.65537
4 *344:3 *484:Q 5.82714
*END

*D_NET *345 0.00627208

*CONN
*I *537:A0 I *C 10.58 46 *L 0.00299 *D AOI222X1
*I *531:A0 I *C 10.58 23.46 *L 0.00299 *D AOI22X1
*I *497:Q O *C 20.7 23.46 *L 0 *D DFFRX1

*CAP
1 *537:A0 0.000822725
2 *531:A0 2.13507e-06
3 *497:Q 0.00106598
4 *345:3 0.00189083813
5 *537:A0 *192:33 0.000197410586
6 *537:A0 *334:23 0.000816583672
7 *537:A0 *531:A1 0.000528812422
8 *537:A0 *524:A0 0.000947594609

*RES
1 *345:3 *497:Q 13.0823
2 *531:A0 *345:3 4.51383
3 *537:A0 *345:3 24.3271599
*END

*D_NET *346 0.0066489

*CONN
*I *532:A0 I *C 10.58 48.76 *L 0.00299 *D AOI222X1
*I *526:C0 I *C 13.34 29.44 *L 0.00316 *D AOI222X1
*I *494:Q O *C 23 29.9 *L 0 *D DFFRX1

*CAP
1 *494:Q 0.000948314
2 *526:C0 7.84481e-05
3 *532:A0 0.00144373
4 *346:3 0.00247049328
5 *532:A0 *527:A0 0.000369787227
6 *532:A0 *524:C0 0.000598192227
7 *346:3 *2:103 0.000188708301
8 *346:3 *334:19 0.000321507461
9 *346:3 *526:C1 0.000229716309

*RES
1 *532:A0 *346:3 31.9812298
2 *526:C0 *346:3 8.06168
3 *346:3 *494:Q 9.53884
*END

*D_NET *347 0.00645101

*CONN
*I *533:A0 I *C 10.58 54.28 *L 0.00299 *D AOI222X1
*I *524:C0 I *C 12.88 37.72 *L 0.00316 *D AOI222X1
*I *482:Q O *C 22.54 38.18 *L 0 *D DFFRX1

*CAP
1 *482:Q 5.05563e-05
2 *524:C0 8.24364e-05
3 *533:A0 0.00124603
4 *347:3 0.000807151
5 *347:4 0.00208508969
6 *347:4 *191:15 0.000790775
7 *347:3 *569:Y 0.000790774688
8 *524:C0 *532:A0 0.000598192227

*RES
1 *533:A0 *347:4 29.8620453
2 *524:C0 *347:4 8.06926
3 *347:4 *347:3 4.90699
4 *347:3 *482:Q 4.81813
*END

*D_NET *348 0.00851405

*CONN
*I *528:C0 I *C 12.42 40.48 *L 0.00316 *D AOI222X1
*I *527:A0 I *C 12.42 62.56 *L 0.00299 *D AOI222X1
*I *493:Q O *C 23.46 40.02 *L 0 *D DFFRX1

*CAP
1 *527:A0 0.00150124
2 *528:C0 1.52717e-05
3 *493:Q 0.00236267
4 *348:3 0.00387918938
5 *527:A0 *532:A0 0.000369787227
6 *527:A0 *549:B1 0.000385880469

*RES
1 *348:3 *493:Q 19.5597
2 *528:C0 *348:3 4.52926
3 *527:A0 *348:3 23.8628387
*END

*D_NET *349 0.00657988

*CONN
*I *537:C0 I *C 12.42 46 *L 0.00316 *D AOI222X1
*I *529:A0 I *C 10.58 65.32 *L 0.00299 *D AOI222X1
*I *495:Q O *C 23.46 46.46 *L 0 *D DFFRX1

*CAP
1 *495:Q 0.00110917
2 *537:C0 0.00014705
3 *529:A0 0.00181383
4 *349:3 0.00307005656
5 *349:3 *350:3 0.000268816953
6 *349:3 *517:A 0.000170946113

*RES
1 *529:A0 *349:3 18.0063248
2 *537:C0 *349:3 8.4336
3 *349:3 *495:Q 9.75489
*END

*D_NET *350 0.00588894

*CONN
*I *552:A0 I *C 16.56 63.02 *L 0.00299 *D AOI22X1
*I *532:C0 I *C 12.42 48.76 *L 0.00316 *D AOI222X1
*I *496:Q O *C 22.08 48.3 *L 0 *D DFFRX1

*CAP
1 *496:Q 0.000626972
2 *552:A0 0.00127827
3 *532:C0 0.00062968
4 *350:3 0.00253492594
5 *350:3 *2:100 0.00015974
6 *496:Q *2:101 0.000159740898
7 *350:3 *349:3 0.000268816953
8 *552:A0 *552:B1 0.00023078918

*RES
1 *532:C0 *350:3 12.9952
2 *552:A0 *350:3 24.4047642
3 *350:3 *496:Q 12.2608
*END

*D_NET *351 0.00317872

*CONN
*I *549:A0 I *C 12.88 56.58 *L 0.00299 *D AOI22X1
*I *533:C0 I *C 12.42 54.28 *L 0.00316 *D AOI222X1
*I *481:Q O *C 22.08 54.74 *L 0 *D DFFRX1

*CAP
1 *549:A0 0.000173814
2 *481:Q 0.00123673
3 *533:C0 0.00017881
4 *351:3 0.00158935781

*RES
1 *533:C0 *351:3 11.8237
2 *351:3 *481:Q 12.940526
3 *549:A0 *351:3 5.99676
*END

*D_NET *352 0.00448108

*CONN
*I *550:A0 I *C 14.72 64.86 *L 0.00299 *D AOI22X1
*I *527:C0 I *C 14.26 62.56 *L 0.00316 *D AOI222X1
*I *492:Q O *C 18.86 71.3 *L 0 *D DFFRX1

*CAP
1 *492:Q 0.00153716
2 *550:A0 0.000247947
3 *527:C0 0.000390901
4 *352:3 0.00184965141
5 *352:4 0.000455449

*RES
1 *527:C0 *352:4 8.10393
2 *352:4 *352:3 3.53739
3 *550:A0 *352:3 9.56765
4 *352:3 *492:Q 20.1272964
*END

*D_NET *353 0.0047698

*CONN
*I *551:A0 I *C 10.58 73.14 *L 0.00299 *D AOI22X1
*I *529:C0 I *C 12.42 65.32 *L 0.00316 *D AOI222X1
*I *483:Q O *C 20.7 73.14 *L 0 *D DFFRX1

*CAP
1 *529:C0 0.000929105
2 *483:Q 0.00126241
3 *551:A0 0.000193347
4 *353:3 0.00238490109

*RES
1 *551:A0 *353:3 8.22385
2 *353:3 *483:Q 9.37663
3 *529:C0 *353:3 21.8919525
*END

